! COPPER MOUNTAIN TECHNOLOGIES, R60, 23103002, 24.3.3/3.0
! Date: 24/6/2026 15:45:38
! Data: Format [Calibration Info]
! Frequency		S11: Mag/Ang F1                
# HZ S MA R 50
1.00000000E+08	 1.00007256E+00	 2.40907234E-02
1.05000000E+08	 1.00003716E+00	 2.39921641E-02
1.10000000E+08	 9.99956916E-01	 2.86070143E-02
1.15000000E+08	 1.00006871E+00	 2.65312668E-02
1.20000000E+08	 9.99787926E-01	 3.58904731E-02
1.25000000E+08	 9.99908665E-01	 2.20682247E-02
1.30000000E+08	 1.00004648E+00	 2.13504237E-02
1.35000000E+08	 1.00002668E+00	 2.46979454E-02
1.40000000E+08	 1.00003649E+00	 2.61956227E-02
1.45000000E+08	 1.00013859E+00	 1.96363266E-02
1.50000000E+08	 1.00014908E+00	 3.30537314E-02
1.55000000E+08	 1.00014273E+00	 2.59867921E-02
1.60000000E+08	 1.00012097E+00	 2.59632114E-02
1.65000000E+08	 1.00010989E+00	 2.55649121E-02
1.70000000E+08	 1.00022167E+00	 3.13522589E-02
1.75000000E+08	 1.00022529E+00	 2.75491489E-02
1.80000000E+08	 1.00028918E+00	 3.61460544E-02
1.85000000E+08	 1.00017545E+00	 3.00520806E-02
1.90000000E+08	 1.00027225E+00	 3.22852926E-02
1.95000000E+08	 1.00028321E+00	 3.31969953E-02
2.00000000E+08	 1.00024903E+00	 3.77380886E-02
2.05000000E+08	 1.00033839E+00	 3.49943668E-02
2.10000000E+08	 1.00054620E+00	 3.38132941E-02
2.15000000E+08	 1.00033901E+00	 3.66339195E-02
2.20000000E+08	 1.00039342E+00	 3.40483169E-02
2.25000000E+08	 1.00030171E+00	 4.21066246E-02
2.30000000E+08	 1.00044220E+00	 4.02158561E-02
2.35000000E+08	 1.00059351E+00	 3.91517907E-02
2.40000000E+08	 1.00060297E+00	 3.91694199E-02
2.45000000E+08	 1.00054903E+00	 4.81440900E-02
2.50000000E+08	 1.00061342E+00	 5.06966928E-02
2.55000000E+08	 1.00070089E+00	 4.44757654E-02
2.60000000E+08	 1.00057987E+00	 5.05268746E-02
2.65000000E+08	 1.00063504E+00	 4.85753939E-02
2.70000000E+08	 1.00056882E+00	 4.94615396E-02
2.75000000E+08	 1.00073026E+00	 5.22424385E-02
2.80000000E+08	 1.00070060E+00	 5.70056567E-02
2.85000000E+08	 1.00081606E+00	 5.49918336E-02
2.90000000E+08	 1.00072289E+00	 5.61957124E-02
2.95000000E+08	 1.00087891E+00	 6.56950105E-02
3.00000000E+08	 1.00105775E+00	 5.94542891E-02
3.05000000E+08	 1.00102382E+00	 6.69099842E-02
3.10000000E+08	 1.00112128E+00	 6.09188563E-02
3.15000000E+08	 1.00105638E+00	 6.82820554E-02
3.20000000E+08	 1.00110602E+00	 7.39441846E-02
3.25000000E+08	 1.00112037E+00	 7.32857508E-02
3.30000000E+08	 1.00107616E+00	 7.25159102E-02
3.35000000E+08	 1.00118025E+00	 7.30065760E-02
3.40000000E+08	 1.00121228E+00	 7.39324356E-02
3.45000000E+08	 1.00124498E+00	 8.53128565E-02
3.50000000E+08	 1.00140386E+00	 8.31225115E-02
3.55000000E+08	 1.00139097E+00	 8.60997099E-02
3.60000000E+08	 1.00131135E+00	 8.29567494E-02
3.65000000E+08	 1.00142751E+00	 9.18867030E-02
3.70000000E+08	 1.00148728E+00	 9.69155493E-02
3.75000000E+08	 1.00161099E+00	 9.41100252E-02
3.80000000E+08	 1.00161597E+00	 9.98011769E-02
3.85000000E+08	 1.00166393E+00	 1.05306659E-01
3.90000000E+08	 1.00166253E+00	 1.02950747E-01
3.95000000E+08	 1.00170971E+00	 1.12560231E-01
4.00000000E+08	 1.00167422E+00	 1.09952773E-01
4.05000000E+08	 1.00188254E+00	 1.09330237E-01
4.10000000E+08	 1.00187737E+00	 1.12917305E-01
4.15000000E+08	 1.00194525E+00	 1.15817085E-01
4.20000000E+08	 1.00191679E+00	 1.17768389E-01
4.25000000E+08	 1.00205749E+00	 1.18391553E-01
4.30000000E+08	 1.00197785E+00	 1.21991395E-01
4.35000000E+08	 1.00222505E+00	 1.31306713E-01
4.40000000E+08	 1.00223502E+00	 1.27826917E-01
4.45000000E+08	 1.00221049E+00	 1.30525837E-01
4.50000000E+08	 1.00229363E+00	 1.29934088E-01
4.55000000E+08	 1.00235966E+00	 1.36799055E-01
4.60000000E+08	 1.00237941E+00	 1.40560968E-01
4.65000000E+08	 1.00253799E+00	 1.47369049E-01
4.70000000E+08	 1.00250385E+00	 1.40776365E-01
4.75000000E+08	 1.00259647E+00	 1.43056497E-01
4.80000000E+08	 1.00263371E+00	 1.49212365E-01
4.85000000E+08	 1.00260900E+00	 1.54751913E-01
4.90000000E+08	 1.00271609E+00	 1.56420461E-01
4.95000000E+08	 1.00277150E+00	 1.61084726E-01
5.00000000E+08	 1.00284092E+00	 1.64373618E-01
5.05000000E+08	 1.00289661E+00	 1.65527942E-01
5.10000000E+08	 1.00302704E+00	 1.73575713E-01
5.15000000E+08	 1.00296203E+00	 1.74762805E-01
5.20000000E+08	 1.00308296E+00	 1.79628657E-01
5.25000000E+08	 1.00309695E+00	 1.75913920E-01
5.30000000E+08	 1.00323725E+00	 1.82592304E-01
5.35000000E+08	 1.00316489E+00	 1.82259433E-01
5.40000000E+08	 1.00335556E+00	 1.82438750E-01
5.45000000E+08	 1.00334050E+00	 1.88747005E-01
5.50000000E+08	 1.00334259E+00	 1.93129188E-01
5.55000000E+08	 1.00349234E+00	 1.99557752E-01
5.60000000E+08	 1.00342574E+00	 1.95121027E-01
5.65000000E+08	 1.00358631E+00	 2.04098829E-01
5.70000000E+08	 1.00360867E+00	 2.02846379E-01
5.75000000E+08	 1.00360613E+00	 2.11883460E-01
5.80000000E+08	 1.00363536E+00	 2.07556432E-01
5.85000000E+08	 1.00372321E+00	 2.10224988E-01
5.90000000E+08	 1.00384023E+00	 2.14321239E-01
5.95000000E+08	 1.00381599E+00	 2.18458233E-01
6.00000000E+08	 1.00383048E+00	 2.26094058E-01
6.05000000E+08	 1.00393848E+00	 2.26892537E-01
6.10000000E+08	 1.00400812E+00	 2.28649586E-01
6.15000000E+08	 1.00402729E+00	 2.28474341E-01
6.20000000E+08	 1.00410412E+00	 2.35579038E-01
6.25000000E+08	 1.00421931E+00	 2.38360290E-01
6.30000000E+08	 1.00424307E+00	 2.38771926E-01
6.35000000E+08	 1.00437346E+00	 2.43296424E-01
6.40000000E+08	 1.00434321E+00	 2.53199051E-01
6.45000000E+08	 1.00424542E+00	 2.47869313E-01
6.50000000E+08	 1.00439094E+00	 2.52805467E-01
6.55000000E+08	 1.00441124E+00	 2.57824763E-01
6.60000000E+08	 1.00444215E+00	 2.57421758E-01
6.65000000E+08	 1.00449165E+00	 2.64119959E-01
6.70000000E+08	 1.00469028E+00	 2.65815291E-01
6.75000000E+08	 1.00473369E+00	 2.71489025E-01
6.80000000E+08	 1.00459353E+00	 2.73886761E-01
6.85000000E+08	 1.00471797E+00	 2.81989120E-01
6.90000000E+08	 1.00481411E+00	 2.83311386E-01
6.95000000E+08	 1.00487639E+00	 2.83600473E-01
7.00000000E+08	 1.00488884E+00	 2.87085929E-01
7.05000000E+08	 1.00488014E+00	 2.90024334E-01
7.10000000E+08	 1.00502828E+00	 2.90116179E-01
7.15000000E+08	 1.00492536E+00	 2.93841980E-01
7.20000000E+08	 1.00515711E+00	 3.00075126E-01
7.25000000E+08	 1.00511573E+00	 3.03185742E-01
7.30000000E+08	 1.00510242E+00	 3.04150333E-01
7.35000000E+08	 1.00519888E+00	 3.08042916E-01
7.40000000E+08	 1.00520980E+00	 3.12006974E-01
7.45000000E+08	 1.00527695E+00	 3.17538274E-01
7.50000000E+08	 1.00524216E+00	 3.11530761E-01
7.55000000E+08	 1.00530457E+00	 3.18786950E-01
7.60000000E+08	 1.00535121E+00	 3.23713343E-01
7.65000000E+08	 1.00531271E+00	 3.21257871E-01
7.70000000E+08	 1.00533651E+00	 3.23780166E-01
7.75000000E+08	 1.00549063E+00	 3.22396890E-01
7.80000000E+08	 1.00529145E+00	 3.30019033E-01
7.85000000E+08	 1.00553061E+00	 3.25035307E-01
7.90000000E+08	 1.00551068E+00	 3.33923244E-01
7.95000000E+08	 1.00540965E+00	 3.35140651E-01
8.00000000E+08	 1.00555699E+00	 3.36125965E-01
8.05000000E+08	 1.00558850E+00	 3.40415820E-01
8.10000000E+08	 1.00560836E+00	 3.45377539E-01
8.15000000E+08	 1.00555222E+00	 3.42983504E-01
8.20000000E+08	 1.00565642E+00	 3.47063010E-01
8.25000000E+08	 1.00562185E+00	 3.44962673E-01
8.30000000E+08	 1.00561138E+00	 3.45717140E-01
8.35000000E+08	 1.00553554E+00	 3.51198305E-01
8.40000000E+08	 1.00568712E+00	 3.57312648E-01
8.45000000E+08	 1.00571683E+00	 3.55033994E-01
8.50000000E+08	 1.00557302E+00	 3.57640256E-01
8.55000000E+08	 1.00574665E+00	 3.58542685E-01
8.60000000E+08	 1.00578208E+00	 3.57690718E-01
8.65000000E+08	 1.00567088E+00	 3.56159566E-01
8.70000000E+08	 1.00567019E+00	 3.60949214E-01
8.75000000E+08	 1.00574373E+00	 3.59811542E-01
8.80000000E+08	 1.00582204E+00	 3.61059866E-01
8.85000000E+08	 1.00571811E+00	 3.60437698E-01
8.90000000E+08	 1.00575047E+00	 3.60882657E-01
8.95000000E+08	 1.00573977E+00	 3.63182805E-01
9.00000000E+08	 1.00565669E+00	 3.64122859E-01
9.05000000E+08	 1.00574268E+00	 3.68981921E-01
9.10000000E+08	 1.00562424E+00	 3.66570778E-01
9.15000000E+08	 1.00576412E+00	 3.56283144E-01
9.20000000E+08	 1.00569069E+00	 3.66136507E-01
9.25000000E+08	 1.00570189E+00	 3.62905750E-01
9.30000000E+08	 1.00566526E+00	 3.59727723E-01
9.35000000E+08	 1.00579127E+00	 3.61311578E-01
9.40000000E+08	 1.00571654E+00	 3.61236234E-01
9.45000000E+08	 1.00556430E+00	 3.61002891E-01
9.50000000E+08	 1.00560765E+00	 3.61748668E-01
9.55000000E+08	 1.00565101E+00	 3.60845120E-01
9.60000000E+08	 1.00555084E+00	 3.57675700E-01
9.65000000E+08	 1.00551181E+00	 3.59896268E-01
9.70000000E+08	 1.00554293E+00	 3.57496424E-01
9.75000000E+08	 1.00552803E+00	 3.56156059E-01
9.80000000E+08	 1.00553124E+00	 3.52773886E-01
9.85000000E+08	 1.00549793E+00	 3.51528364E-01
9.90000000E+08	 1.00550796E+00	 3.52838572E-01
9.95000000E+08	 1.00545568E+00	 3.48751982E-01
1.00000000E+09	 1.00562183E+00	 3.39220774E-01
1.00500000E+09	 1.00548219E+00	 3.46869983E-01
1.01000000E+09	 1.00535239E+00	 3.41836885E-01
1.01500000E+09	 1.00533803E+00	 3.40792904E-01
1.02000000E+09	 1.00546978E+00	 3.35903442E-01
1.02500000E+09	 1.00528495E+00	 3.37023356E-01
1.03000000E+09	 1.00527020E+00	 3.33689728E-01
1.03500000E+09	 1.00519276E+00	 3.35609479E-01
1.04000000E+09	 1.00529919E+00	 3.29876669E-01
1.04500000E+09	 1.00523942E+00	 3.29856994E-01
1.05000000E+09	 1.00508280E+00	 3.26892567E-01
1.05500000E+09	 1.00505369E+00	 3.29477660E-01
1.06000000E+09	 1.00510145E+00	 3.16832635E-01
1.06500000E+09	 1.00510197E+00	 3.21304852E-01
1.07000000E+09	 1.00503065E+00	 3.13027633E-01
1.07500000E+09	 1.00511656E+00	 3.11282398E-01
1.08000000E+09	 1.00504357E+00	 3.13544380E-01
1.08500000E+09	 1.00499289E+00	 3.09709205E-01
1.09000000E+09	 1.00489502E+00	 3.08256631E-01
1.09500000E+09	 1.00493137E+00	 2.96195556E-01
1.10000000E+09	 1.00475910E+00	 3.00253290E-01
1.10500000E+09	 1.00481329E+00	 2.92121733E-01
1.11000000E+09	 1.00485466E+00	 2.93091205E-01
1.11500000E+09	 1.00475186E+00	 2.85982965E-01
1.12000000E+09	 1.00477215E+00	 2.85775173E-01
1.12500000E+09	 1.00463174E+00	 2.77143271E-01
1.13000000E+09	 1.00463799E+00	 2.80478852E-01
1.13500000E+09	 1.00447705E+00	 2.73898687E-01
1.14000000E+09	 1.00456088E+00	 2.69504585E-01
1.14500000E+09	 1.00454123E+00	 2.70357666E-01
1.15000000E+09	 1.00451201E+00	 2.68992272E-01
1.15500000E+09	 1.00443950E+00	 2.62587174E-01
1.16000000E+09	 1.00434752E+00	 2.56538800E-01
1.16500000E+09	 1.00433944E+00	 2.56457288E-01
1.17000000E+09	 1.00434861E+00	 2.58533816E-01
1.17500000E+09	 1.00419126E+00	 2.48712725E-01
1.18000000E+09	 1.00420908E+00	 2.49230822E-01
1.18500000E+09	 1.00422786E+00	 2.44422568E-01
1.19000000E+09	 1.00403990E+00	 2.37242310E-01
1.19500000E+09	 1.00415873E+00	 2.32227947E-01
1.20000000E+09	 1.00405383E+00	 2.28514551E-01
1.20500000E+09	 1.00384389E+00	 2.24458778E-01
1.21000000E+09	 1.00396849E+00	 2.15838329E-01
1.21500000E+09	 1.00401181E+00	 2.13076671E-01
1.22000000E+09	 1.00383435E+00	 2.12994153E-01
1.22500000E+09	 1.00380778E+00	 2.03791916E-01
1.23000000E+09	 1.00391518E+00	 2.13796052E-01
1.23500000E+09	 1.00365631E+00	 2.11979798E-01
1.24000000E+09	 1.00365830E+00	 1.99817389E-01
1.24500000E+09	 1.00353723E+00	 1.98412573E-01
1.25000000E+09	 1.00353295E+00	 2.00549062E-01
1.25500000E+09	 1.00346142E+00	 1.88510283E-01
1.26000000E+09	 1.00336119E+00	 1.86867819E-01
1.26500000E+09	 1.00329758E+00	 1.85420436E-01
1.27000000E+09	 1.00343795E+00	 1.85192390E-01
1.27500000E+09	 1.00350972E+00	 1.82972311E-01
1.28000000E+09	 1.00341082E+00	 1.69538655E-01
1.28500000E+09	 1.00322218E+00	 1.70913633E-01
1.29000000E+09	 1.00311294E+00	 1.69554560E-01
1.29500000E+09	 1.00310149E+00	 1.57737176E-01
1.30000000E+09	 1.00310349E+00	 1.55365640E-01
1.30500000E+09	 1.00294368E+00	 1.57832225E-01
1.31000000E+09	 1.00305746E+00	 1.52861100E-01
1.31500000E+09	 1.00298361E+00	 1.47311674E-01
1.32000000E+09	 1.00295485E+00	 1.53773255E-01
1.32500000E+09	 1.00298238E+00	 1.50454926E-01
1.33000000E+09	 1.00287878E+00	 1.34530827E-01
1.33500000E+09	 1.00281827E+00	 1.32342780E-01
1.34000000E+09	 1.00263827E+00	 1.33664956E-01
1.34500000E+09	 1.00267907E+00	 1.31315103E-01
1.35000000E+09	 1.00253800E+00	 1.24157336E-01
1.35500000E+09	 1.00261259E+00	 1.21883249E-01
1.36000000E+09	 1.00248781E+00	 1.12629859E-01
1.36500000E+09	 1.00227558E+00	 1.14416377E-01
1.37000000E+09	 1.00231260E+00	 1.10606178E-01
1.37500000E+09	 1.00229045E+00	 1.08272829E-01
1.38000000E+09	 1.00223589E+00	 1.03680477E-01
1.38500000E+09	 1.00210957E+00	 9.65622359E-02
1.39000000E+09	 1.00205101E+00	 9.77189781E-02
1.39500000E+09	 1.00196910E+00	 9.28095749E-02
1.40000000E+09	 1.00205469E+00	 8.63905712E-02
1.40500000E+09	 1.00196629E+00	 8.86786842E-02
1.41000000E+09	 1.00187435E+00	 8.68638101E-02
1.41500000E+09	 1.00184160E+00	 8.05619499E-02
1.42000000E+09	 1.00179271E+00	 7.69867717E-02
1.42500000E+09	 1.00178272E+00	 7.41797991E-02
1.43000000E+09	 1.00164095E+00	 7.72818926E-02
1.43500000E+09	 1.00154246E+00	 7.09935873E-02
1.44000000E+09	 1.00142202E+00	 6.38602623E-02
1.44500000E+09	 1.00143244E+00	 5.61129460E-02
1.45000000E+09	 1.00142996E+00	 5.41403426E-02
1.45500000E+09	 1.00125792E+00	 5.67231449E-02
1.46000000E+09	 1.00137776E+00	 5.24916563E-02
1.46500000E+09	 1.00123166E+00	 5.48174334E-02
1.47000000E+09	 1.00129725E+00	 5.18128198E-02
1.47500000E+09	 1.00119521E+00	 4.44415339E-02
1.48000000E+09	 1.00116303E+00	 4.30206153E-02
1.48500000E+09	 1.00100926E+00	 3.53560728E-02
1.49000000E+09	 1.00093976E+00	 3.63487825E-02
1.49500000E+09	 1.00087846E+00	 3.61708168E-02
1.50000000E+09	 1.00094489E+00	 2.50733158E-02
1.50500000E+09	 1.00071931E+00	 2.40505272E-02
1.51000000E+09	 1.00076048E+00	 1.97013690E-02
1.51500000E+09	 1.00076442E+00	 1.71856454E-02
1.52000000E+09	 1.00058077E+00	 1.42274973E-02
1.52500000E+09	 1.00056043E+00	 1.30485912E-02
1.53000000E+09	 1.00060868E+00	 4.28334026E-03
1.53500000E+09	 1.00041563E+00	 3.77123425E-03
1.54000000E+09	 1.00041137E+00	-2.32079546E-03
1.54500000E+09	 1.00045684E+00	 3.83553144E-03
1.55000000E+09	 1.00032114E+00	-7.03409518E-04
1.55500000E+09	 1.00029667E+00	-7.59861426E-03
1.56000000E+09	 1.00019039E+00	-7.18760606E-03
1.56500000E+09	 1.00026709E+00	-5.67824381E-03
1.57000000E+09	 1.00008688E+00	-7.09292157E-03
1.57500000E+09	 9.99976052E-01	-1.20959438E-02
1.58000000E+09	 1.00014458E+00	-2.03971294E-02
1.58500000E+09	 9.99947439E-01	-2.53628296E-02
1.59000000E+09	 9.99978728E-01	-2.90381960E-02
1.59500000E+09	 9.99994703E-01	-3.41414564E-02
1.60000000E+09	 9.99970172E-01	-3.66844392E-02
1.60500000E+09	 9.99900148E-01	-4.14171347E-02
1.61000000E+09	 9.99987679E-01	-4.42788680E-02
1.61500000E+09	 9.99898490E-01	-3.68311291E-02
1.62000000E+09	 9.99789233E-01	-4.17462445E-02
1.62500000E+09	 9.99779875E-01	-4.36533403E-02
1.63000000E+09	 9.99807663E-01	-4.45795013E-02
1.63500000E+09	 9.99661873E-01	-4.04692098E-02
1.64000000E+09	 9.99603641E-01	-4.55521537E-02
1.64500000E+09	 9.99579350E-01	-4.63775950E-02
1.65000000E+09	 9.99595624E-01	-5.08441637E-02
1.65500000E+09	 9.99664416E-01	-5.46123456E-02
1.66000000E+09	 9.99679863E-01	-5.07667198E-02
1.66500000E+09	 9.99632483E-01	-6.65389933E-02
1.67000000E+09	 9.99543981E-01	-5.74605699E-02
1.67500000E+09	 9.99738192E-01	-6.76672594E-02
1.68000000E+09	 9.99537787E-01	-6.14794205E-02
1.68500000E+09	 9.99595282E-01	-5.86904474E-02
1.69000000E+09	 9.99640207E-01	-6.60553563E-02
1.69500000E+09	 9.99552019E-01	-6.72131607E-02
1.70000000E+09	 9.99621315E-01	-6.06334397E-02
1.70500000E+09	 9.99548999E-01	-6.83454886E-02
1.71000000E+09	 9.99396121E-01	-7.38832538E-02
1.71500000E+09	 9.99406137E-01	-7.39178808E-02
1.72000000E+09	 9.99647787E-01	-7.50603586E-02
1.72500000E+09	 9.99570944E-01	-7.55080983E-02
1.73000000E+09	 9.99583872E-01	-7.45273442E-02
1.73500000E+09	 9.99402209E-01	-7.72314203E-02
1.74000000E+09	 9.99551354E-01	-7.76056854E-02
1.74500000E+09	 9.99543238E-01	-7.23455798E-02
1.75000000E+09	 9.99683826E-01	-7.92699862E-02
1.75500000E+09	 9.99562011E-01	-7.86235776E-02
1.76000000E+09	 9.99543257E-01	-7.88064188E-02
1.76500000E+09	 9.99570401E-01	-8.14777298E-02
1.77000000E+09	 9.99554212E-01	-7.50294022E-02
1.77500000E+09	 9.99518187E-01	-8.02056334E-02
1.78000000E+09	 9.99750053E-01	-8.12146950E-02
1.78500000E+09	 9.99612409E-01	-7.21738218E-02
1.79000000E+09	 9.99601505E-01	-7.51902710E-02
1.79500000E+09	 9.99703414E-01	-7.97648271E-02
1.80000000E+09	 9.99703112E-01	-7.93499424E-02
1.80500000E+09	 9.99705373E-01	-6.89231641E-02
1.81000000E+09	 9.99828217E-01	-7.45320156E-02
1.81500000E+09	 9.99784113E-01	-6.53523243E-02
1.82000000E+09	 9.99932065E-01	-7.42811109E-02
1.82500000E+09	 9.99849293E-01	-6.58147215E-02
1.83000000E+09	 1.00006111E+00	-6.65228585E-02
1.83500000E+09	 1.00006168E+00	-6.21433771E-02
1.84000000E+09	 1.00010661E+00	-7.07361766E-02
1.84500000E+09	 9.99870959E-01	-5.45791903E-02
1.85000000E+09	 9.99968704E-01	-6.40682663E-02
1.85500000E+09	 1.00010221E+00	-5.97690064E-02
1.86000000E+09	 1.00025009E+00	-5.35641545E-02
1.86500000E+09	 1.00006640E+00	-6.05886235E-02
1.87000000E+09	 1.00023575E+00	-6.14975055E-02
1.87500000E+09	 1.00021643E+00	-5.33016190E-02
1.88000000E+09	 1.00034793E+00	-4.55185830E-02
1.88500000E+09	 1.00049595E+00	-5.22288872E-02
1.89000000E+09	 1.00067108E+00	-4.10963923E-02
1.89500000E+09	 1.00065394E+00	-3.27597940E-02
1.90000000E+09	 1.00057994E+00	-3.36086648E-02
1.90500000E+09	 1.00084371E+00	-2.27303718E-02
1.91000000E+09	 1.00062843E+00	-2.77389467E-02
1.91500000E+09	 1.00074341E+00	-2.50802893E-02
1.92000000E+09	 1.00074053E+00	-1.47927649E-02
1.92500000E+09	 1.00081701E+00	-1.29069439E-02
1.93000000E+09	 1.00089047E+00	-4.41832726E-03
1.93500000E+09	 1.00108679E+00	 5.28891974E-03
1.94000000E+09	 1.00132465E+00	 4.15188427E-03
1.94500000E+09	 1.00118274E+00	-4.61026568E-04
1.95000000E+09	 1.00132806E+00	 1.01748024E-02
1.95500000E+09	 1.00121294E+00	 2.43757754E-02
1.96000000E+09	 1.00134260E+00	 2.35638303E-02
1.96500000E+09	 1.00156719E+00	 2.22131420E-02
1.97000000E+09	 1.00153862E+00	 3.28637304E-02
1.97500000E+09	 1.00171926E+00	 2.91964653E-02
1.98000000E+09	 1.00176303E+00	 3.95985329E-02
1.98500000E+09	 1.00194758E+00	 3.85344097E-02
1.99000000E+09	 1.00174094E+00	 4.20063123E-02
1.99500000E+09	 1.00191677E+00	 5.23999428E-02
2.00000000E+09	 1.00208330E+00	 5.61008645E-02
2.00500000E+09	 1.00227888E+00	 6.25740406E-02
2.01000000E+09	 1.00219479E+00	 5.88839100E-02
2.01500000E+09	 1.00237749E+00	 6.94899731E-02
2.02000000E+09	 1.00229669E+00	 6.70794732E-02
2.02500000E+09	 1.00243828E+00	 8.08108866E-02
2.03000000E+09	 1.00267410E+00	 8.24374999E-02
2.03500000E+09	 1.00260761E+00	 9.07010015E-02
2.04000000E+09	 1.00287924E+00	 9.47125310E-02
2.04500000E+09	 1.00287421E+00	 1.01783261E-01
2.05000000E+09	 1.00302191E+00	 1.07739457E-01
2.05500000E+09	 1.00315225E+00	 1.12986671E-01
2.06000000E+09	 1.00321748E+00	 1.20191491E-01
2.06500000E+09	 1.00333736E+00	 1.19281706E-01
2.07000000E+09	 1.00325159E+00	 1.23107773E-01
2.07500000E+09	 1.00340831E+00	 1.31124448E-01
2.08000000E+09	 1.00343787E+00	 1.38651896E-01
2.08500000E+09	 1.00360546E+00	 1.39523909E-01
2.09000000E+09	 1.00365416E+00	 1.48842167E-01
2.09500000E+09	 1.00374879E+00	 1.57361090E-01
2.10000000E+09	 1.00386928E+00	 1.62070087E-01
2.10500000E+09	 1.00416113E+00	 1.64107729E-01
2.11000000E+09	 1.00417104E+00	 1.66729576E-01
2.11500000E+09	 1.00419024E+00	 1.76434573E-01
2.12000000E+09	 1.00437735E+00	 1.86815284E-01
2.12500000E+09	 1.00445567E+00	 1.91684624E-01
2.13000000E+09	 1.00453454E+00	 1.95336516E-01
2.13500000E+09	 1.00468576E+00	 2.05229388E-01
2.14000000E+09	 1.00478006E+00	 2.10038094E-01
2.14500000E+09	 1.00503881E+00	 2.14316487E-01
2.15000000E+09	 1.00494583E+00	 2.14131535E-01
2.15500000E+09	 1.00504400E+00	 2.15643964E-01
2.16000000E+09	 1.00530267E+00	 2.26261576E-01
2.16500000E+09	 1.00514002E+00	 2.40425817E-01
2.17000000E+09	 1.00532062E+00	 2.38554027E-01
2.17500000E+09	 1.00563272E+00	 2.46362562E-01
2.18000000E+09	 1.00558200E+00	 2.47687466E-01
2.18500000E+09	 1.00562805E+00	 2.59788850E-01
2.19000000E+09	 1.00587721E+00	 2.56775588E-01
2.19500000E+09	 1.00586901E+00	 2.67475437E-01
2.20000000E+09	 1.00601988E+00	 2.62828679E-01
2.20500000E+09	 1.00602310E+00	 2.70505993E-01
2.21000000E+09	 1.00608418E+00	 2.92319612E-01
2.21500000E+09	 1.00642218E+00	 2.85186441E-01
2.22000000E+09	 1.00634882E+00	 2.93906959E-01
2.22500000E+09	 1.00657848E+00	 2.93795147E-01
2.23000000E+09	 1.00680650E+00	 2.96089027E-01
2.23500000E+09	 1.00676942E+00	 3.04975661E-01
2.24000000E+09	 1.00682048E+00	 3.14281226E-01
2.24500000E+09	 1.00687539E+00	 3.10419229E-01
2.25000000E+09	 1.00688862E+00	 3.25578423E-01
2.25500000E+09	 1.00713794E+00	 3.28076026E-01
2.26000000E+09	 1.00733806E+00	 3.26058449E-01
2.26500000E+09	 1.00744201E+00	 3.34983864E-01
2.27000000E+09	 1.00745690E+00	 3.32928355E-01
2.27500000E+09	 1.00769646E+00	 3.56392908E-01
2.28000000E+09	 1.00772578E+00	 3.50445533E-01
2.28500000E+09	 1.00776573E+00	 3.45044425E-01
2.29000000E+09	 1.00800156E+00	 3.66114362E-01
2.29500000E+09	 1.00791458E+00	 3.66825649E-01
2.30000000E+09	 1.00812585E+00	 3.63045891E-01
2.30500000E+09	 1.00815203E+00	 3.80001847E-01
2.31000000E+09	 1.00827264E+00	 3.84366699E-01
2.31500000E+09	 1.00830042E+00	 3.85598096E-01
2.32000000E+09	 1.00829627E+00	 3.99282840E-01
2.32500000E+09	 1.00852937E+00	 3.99019570E-01
2.33000000E+09	 1.00866809E+00	 4.06679523E-01
2.33500000E+09	 1.00865632E+00	 4.05080781E-01
2.34000000E+09	 1.00880492E+00	 4.12232504E-01
2.34500000E+09	 1.00890406E+00	 4.21259211E-01
2.35000000E+09	 1.00899445E+00	 4.20555096E-01
2.35500000E+09	 1.00903814E+00	 4.33815005E-01
2.36000000E+09	 1.00912854E+00	 4.39212822E-01
2.36500000E+09	 1.00915350E+00	 4.46337538E-01
2.37000000E+09	 1.00929265E+00	 4.50962270E-01
2.37500000E+09	 1.00929813E+00	 4.47233461E-01
2.38000000E+09	 1.00939227E+00	 4.59006421E-01
2.38500000E+09	 1.00964487E+00	 4.57690160E-01
2.39000000E+09	 1.00958400E+00	 4.56405275E-01
2.39500000E+09	 1.00960383E+00	 4.65884446E-01
2.40000000E+09	 1.00964469E+00	 4.73190096E-01
2.40500000E+09	 1.00975468E+00	 4.70883089E-01
2.41000000E+09	 1.00981061E+00	 4.85918838E-01
2.41500000E+09	 1.00996044E+00	 4.88018026E-01
2.42000000E+09	 1.00981544E+00	 4.99821088E-01
2.42500000E+09	 1.01004818E+00	 4.97151396E-01
2.43000000E+09	 1.00992223E+00	 5.09225061E-01
2.43500000E+09	 1.00999514E+00	 5.17691032E-01
2.44000000E+09	 1.01016385E+00	 5.15032260E-01
2.44500000E+09	 1.01001235E+00	 5.23905939E-01
2.45000000E+09	 1.01052907E+00	 5.28958454E-01
2.45500000E+09	 1.01014263E+00	 5.39013015E-01
2.46000000E+09	 1.01037964E+00	 5.44377500E-01
2.46500000E+09	 1.01039202E+00	 5.45266119E-01
2.47000000E+09	 1.01050142E+00	 5.53705073E-01
2.47500000E+09	 1.01040345E+00	 5.63278630E-01
2.48000000E+09	 1.01038208E+00	 5.67476116E-01
2.48500000E+09	 1.01031878E+00	 5.67700636E-01
2.49000000E+09	 1.01051894E+00	 5.77640719E-01
2.49500000E+09	 1.01026416E+00	 5.81290911E-01
2.50000000E+09	 1.01051268E+00	 5.85663099E-01
2.50500000E+09	 1.01041121E+00	 5.94392224E-01
2.51000000E+09	 1.01044590E+00	 6.01101092E-01
2.51500000E+09	 1.01061617E+00	 6.03256952E-01
2.52000000E+09	 1.01040624E+00	 6.10697949E-01
2.52500000E+09	 1.01049484E+00	 6.05565957E-01
2.53000000E+09	 1.01075865E+00	 6.10267487E-01
2.53500000E+09	 1.01067923E+00	 6.11591684E-01
2.54000000E+09	 1.01055549E+00	 6.27981335E-01
2.54500000E+09	 1.01057926E+00	 6.21882533E-01
2.55000000E+09	 1.01059658E+00	 6.37109354E-01
2.55500000E+09	 1.01049879E+00	 6.37939172E-01
2.56000000E+09	 1.01060109E+00	 6.34600653E-01
2.56500000E+09	 1.01048690E+00	 6.40678116E-01
2.57000000E+09	 1.01036391E+00	 6.39471263E-01
2.57500000E+09	 1.01034804E+00	 6.45807808E-01
2.58000000E+09	 1.01041503E+00	 6.43716722E-01
2.58500000E+09	 1.01035393E+00	 6.50758115E-01
2.59000000E+09	 1.01021128E+00	 6.54838954E-01
2.59500000E+09	 1.01039335E+00	 6.54210034E-01
2.60000000E+09	 1.01020917E+00	 6.58724805E-01
2.60500000E+09	 1.01032136E+00	 6.58691540E-01
2.61000000E+09	 1.01002633E+00	 6.54525094E-01
2.61500000E+09	 1.01018912E+00	 6.61274597E-01
2.62000000E+09	 1.01018312E+00	 6.67687601E-01
2.62500000E+09	 1.01003124E+00	 6.63701485E-01
2.63000000E+09	 1.00992770E+00	 6.60917432E-01
2.63500000E+09	 1.00993781E+00	 6.60897815E-01
2.64000000E+09	 1.00983272E+00	 6.63082215E-01
2.64500000E+09	 1.00970793E+00	 6.64178170E-01
2.65000000E+09	 1.00968600E+00	 6.61669811E-01
2.65500000E+09	 1.00966685E+00	 6.60406478E-01
2.66000000E+09	 1.00975114E+00	 6.67683365E-01
2.66500000E+09	 1.00946475E+00	 6.67828306E-01
2.67000000E+09	 1.00936943E+00	 6.67698514E-01
2.67500000E+09	 1.00934936E+00	 6.53725441E-01
2.68000000E+09	 1.00942487E+00	 6.61242997E-01
2.68500000E+09	 1.00930743E+00	 6.56125596E-01
2.69000000E+09	 1.00910745E+00	 6.61956406E-01
2.69500000E+09	 1.00895544E+00	 6.46975322E-01
2.70000000E+09	 1.00898415E+00	 6.50846528E-01
2.70500000E+09	 1.00893495E+00	 6.54154555E-01
2.71000000E+09	 1.00899237E+00	 6.44189908E-01
2.71500000E+09	 1.00890731E+00	 6.33745850E-01
2.72000000E+09	 1.00892268E+00	 6.35769468E-01
2.72500000E+09	 1.00876000E+00	 6.26544191E-01
2.73000000E+09	 1.00858098E+00	 6.38445402E-01
2.73500000E+09	 1.00853393E+00	 6.37642688E-01
2.74000000E+09	 1.00831035E+00	 6.16894412E-01
2.74500000E+09	 1.00830720E+00	 6.22466117E-01
2.75000000E+09	 1.00821587E+00	 6.18552503E-01
2.75500000E+09	 1.00828224E+00	 6.11404639E-01
2.76000000E+09	 1.00804643E+00	 6.03588176E-01
2.76500000E+09	 1.00807246E+00	 5.89620761E-01
2.77000000E+09	 1.00792319E+00	 5.94643857E-01
2.77500000E+09	 1.00788955E+00	 5.75338823E-01
2.78000000E+09	 1.00761180E+00	 5.64029757E-01
2.78500000E+09	 1.00753346E+00	 5.75759570E-01
2.79000000E+09	 1.00754000E+00	 5.54542604E-01
2.79500000E+09	 1.00746918E+00	 5.54377661E-01
2.80000000E+09	 1.00749178E+00	 5.41747350E-01
2.80500000E+09	 1.00719901E+00	 5.47613440E-01
2.81000000E+09	 1.00708748E+00	 5.42105200E-01
2.81500000E+09	 1.00694323E+00	 5.28762111E-01
2.82000000E+09	 1.00698484E+00	 5.27145313E-01
2.82500000E+09	 1.00700656E+00	 5.13787956E-01
2.83000000E+09	 1.00687121E+00	 4.98515211E-01
2.83500000E+09	 1.00662164E+00	 4.94025800E-01
2.84000000E+09	 1.00653515E+00	 5.09674688E-01
2.84500000E+09	 1.00658019E+00	 4.90259804E-01
2.85000000E+09	 1.00632768E+00	 4.90907669E-01
2.85500000E+09	 1.00632505E+00	 4.73207521E-01
2.86000000E+09	 1.00596299E+00	 4.71969050E-01
2.86500000E+09	 1.00604086E+00	 4.62004583E-01
2.87000000E+09	 1.00589245E+00	 4.54575147E-01
2.87500000E+09	 1.00586785E+00	 4.46237080E-01
2.88000000E+09	 1.00579651E+00	 4.35966431E-01
2.88500000E+09	 1.00575664E+00	 4.26253418E-01
2.89000000E+09	 1.00559845E+00	 4.19179164E-01
2.89500000E+09	 1.00548642E+00	 4.11938583E-01
2.90000000E+09	 1.00550122E+00	 4.04719916E-01
2.90500000E+09	 1.00535538E+00	 3.95396194E-01
2.91000000E+09	 1.00534157E+00	 3.96414709E-01
2.91500000E+09	 1.00519826E+00	 3.85299295E-01
2.92000000E+09	 1.00515642E+00	 3.76530139E-01
2.92500000E+09	 1.00502190E+00	 3.65483037E-01
2.93000000E+09	 1.00494467E+00	 3.56049882E-01
2.93500000E+09	 1.00482584E+00	 3.52592176E-01
2.94000000E+09	 1.00477253E+00	 3.39188104E-01
2.94500000E+09	 1.00466457E+00	 3.39879985E-01
2.95000000E+09	 1.00458589E+00	 3.25079428E-01
2.95500000E+09	 1.00447274E+00	 3.18115235E-01
2.96000000E+09	 1.00432852E+00	 3.11353516E-01
2.96500000E+09	 1.00422045E+00	 3.01335059E-01
2.97000000E+09	 1.00423008E+00	 2.94968262E-01
2.97500000E+09	 1.00407928E+00	 2.93611230E-01
2.98000000E+09	 1.00409214E+00	 2.73005782E-01
2.98500000E+09	 1.00399994E+00	 2.62753807E-01
2.99000000E+09	 1.00390779E+00	 2.68493214E-01
2.99500000E+09	 1.00384281E+00	 2.54734781E-01
3.00000000E+09	 1.00359009E+00	 2.54300784E-01
3.00500000E+09	 1.00347371E+00	 2.50987017E-01
3.01000000E+09	 1.00347888E+00	 2.47026605E-01
3.01500000E+09	 1.00325050E+00	 2.38346010E-01
3.02000000E+09	 1.00348825E+00	 2.08320323E-01
3.02500000E+09	 1.00313219E+00	 2.34040402E-01
3.03000000E+09	 1.00313899E+00	 2.03956866E-01
3.03500000E+09	 1.00300536E+00	 1.98613291E-01
3.04000000E+09	 1.00304994E+00	 2.03780335E-01
3.04500000E+09	 1.00296886E+00	 1.86924053E-01
3.05000000E+09	 1.00325369E+00	 1.71083061E-01
3.05500000E+09	 1.00231118E+00	 1.58264592E-01
3.06000000E+09	 1.00258793E+00	 1.72989778E-01
3.06500000E+09	 1.00248799E+00	 1.50298055E-01
3.07000000E+09	 1.00221077E+00	 1.66013351E-01
3.07500000E+09	 1.00243183E+00	 1.33774873E-01
3.08000000E+09	 1.00182652E+00	 1.32867330E-01
3.08500000E+09	 1.00209718E+00	 1.61133268E-01
3.09000000E+09	 1.00224159E+00	 1.41099542E-01
3.09500000E+09	 1.00197609E+00	 1.32399533E-01
3.10000000E+09	 1.00189483E+00	 1.34089170E-01
3.10500000E+09	 1.00205726E+00	 1.36122278E-01
3.11000000E+09	 1.00169517E+00	 1.14346786E-01
3.11500000E+09	 1.00150636E+00	 1.13896971E-01
3.12000000E+09	 1.00146705E+00	 1.05579848E-01
3.12500000E+09	 1.00113485E+00	 1.06768143E-01
3.13000000E+09	 1.00121184E+00	 8.88670606E-02
3.13500000E+09	 1.00105679E+00	 1.13186842E-01
3.14000000E+09	 1.00090743E+00	 8.71622162E-02
3.14500000E+09	 1.00067373E+00	 8.04956122E-02
3.15000000E+09	 1.00088494E+00	 9.23581053E-02
3.15500000E+09	 1.00077024E+00	 9.19689331E-02
3.16000000E+09	 1.00069051E+00	 8.50774172E-02
3.16500000E+09	 1.00067495E+00	 6.98129554E-02
3.17000000E+09	 1.00043602E+00	 7.01220380E-02
3.17500000E+09	 1.00067937E+00	 7.66097159E-02
3.18000000E+09	 1.00055018E+00	 5.08493515E-02
3.18500000E+09	 1.00033982E+00	 6.64670299E-02
3.19000000E+09	 1.00039268E+00	 7.01673104E-02
3.19500000E+09	 1.00025183E+00	 5.53763907E-02
3.20000000E+09	 1.00025720E+00	 4.86074642E-02
3.20500000E+09	 1.00023228E+00	 4.19873576E-02
3.21000000E+09	 1.00006971E+00	 4.17986827E-02
3.21500000E+09	 9.99854324E-01	 4.84070052E-02
3.22000000E+09	 1.00003953E+00	 3.52712214E-02
3.22500000E+09	 9.99919198E-01	 4.16248115E-02
3.23000000E+09	 9.99799149E-01	 4.97162010E-02
3.23500000E+09	 9.99708714E-01	 3.57533812E-02
3.24000000E+09	 9.99657729E-01	 3.16609458E-02
3.24500000E+09	 1.00003120E+00	 4.06069163E-03
3.25000000E+09	 9.99760701E-01	 1.66524359E-02
3.25500000E+09	 9.99593286E-01	 2.82015370E-02
3.26000000E+09	 9.99735662E-01	 2.67979219E-02
3.26500000E+09	 9.99480984E-01	 3.25230729E-02
3.27000000E+09	 9.99468933E-01	 2.45575862E-02
3.27500000E+09	 9.99381623E-01	 1.18955782E-02
3.28000000E+09	 9.99332678E-01	 1.84546735E-02
3.28500000E+09	 9.99236465E-01	 2.56240337E-02
3.29000000E+09	 9.99441842E-01	 2.02439367E-02
3.29500000E+09	 9.99211204E-01	 1.55635608E-02
3.30000000E+09	 9.99356729E-01	 6.23540485E-04
3.30500000E+09	 9.99188059E-01	-9.00133155E-03
3.31000000E+09	 9.99221130E-01	 2.27922841E-03
3.31500000E+09	 9.99619661E-01	-1.22508290E-02
3.32000000E+09	 9.99445212E-01	 1.08303587E-03
3.32500000E+09	 9.98857864E-01	-2.67794793E-02
3.33000000E+09	 9.99314999E-01	-1.10550921E-02
3.33500000E+09	 9.99069083E-01	-1.75327040E-02
3.34000000E+09	 9.99133022E-01	-9.34358903E-03
3.34500000E+09	 9.99266559E-01	-3.87094910E-02
3.35000000E+09	 9.99113253E-01	-2.61904557E-02
3.35500000E+09	 9.99395395E-01	-1.32268684E-02
3.36000000E+09	 9.99450523E-01	-1.89456370E-02
3.36500000E+09	 9.99527257E-01	-8.29395119E-03
3.37000000E+09	 9.99770411E-01	-2.18357109E-02
3.37500000E+09	 9.99229636E-01	-1.47764916E-02
3.38000000E+09	 9.99234548E-01	-2.42497721E-02
3.38500000E+09	 9.99075947E-01	-2.05878850E-02
3.39000000E+09	 9.99347780E-01	-1.00364577E-02
3.39500000E+09	 9.99414105E-01	-1.25993457E-02
3.40000000E+09	 9.99265177E-01	-2.62971807E-02
3.40500000E+09	 9.99465479E-01	-1.84896033E-02
3.41000000E+09	 9.99461073E-01	-2.76805160E-02
3.41500000E+09	 9.98996021E-01	-1.56987734E-02
3.42000000E+09	 9.99527577E-01	-2.02402959E-02
3.42500000E+09	 9.99104999E-01	-3.59568841E-02
3.43000000E+09	 9.99316882E-01	-2.43099251E-02
3.43500000E+09	 9.99454849E-01	-3.28655029E-02
3.44000000E+09	 9.99488089E-01	-1.96228922E-02
3.44500000E+09	 9.99456042E-01	-4.08852313E-02
3.45000000E+09	 9.99535627E-01	-2.52575056E-02
3.45500000E+09	 9.99404278E-01	-2.10797765E-02
3.46000000E+09	 9.99595985E-01	-2.65006021E-02
3.46500000E+09	 9.99702230E-01	-2.15851929E-02
3.47000000E+09	 9.99697033E-01	-2.64089798E-02
3.47500000E+09	 9.99728418E-01	-2.29903372E-02
3.48000000E+09	 9.99715819E-01	-2.38640931E-02
3.48500000E+09	 9.99736994E-01	-2.82024674E-02
3.49000000E+09	 9.99816195E-01	-2.50381011E-02
3.49500000E+09	 9.99715673E-01	-2.21756397E-02
3.50000000E+09	 9.99785679E-01	-2.54733989E-02
3.50500000E+09	 9.99779365E-01	-2.03486499E-02
3.51000000E+09	 9.99925602E-01	-1.91160107E-02
3.51500000E+09	 9.99996728E-01	-2.58722865E-02
3.52000000E+09	 1.00006664E+00	-2.33408656E-02
3.52500000E+09	 1.00011624E+00	-1.00356420E-02
3.53000000E+09	 1.00042717E+00	-8.69808497E-03
3.53500000E+09	 1.00022718E+00	-2.82077171E-02
3.54000000E+09	 1.00020799E+00	-1.39827056E-02
3.54500000E+09	 1.00046689E+00	 1.81512681E-02
3.55000000E+09	 1.00033675E+00	-2.03906515E-03
3.55500000E+09	 1.00047176E+00	 1.74620052E-03
3.56000000E+09	 1.00042662E+00	 7.03051504E-03
3.56500000E+09	 1.00071423E+00	 5.58130156E-03
3.57000000E+09	 1.00034689E+00	 1.08031999E-02
3.57500000E+09	 1.00094907E+00	 1.92649825E-02
3.58000000E+09	 1.00061221E+00	 1.95427125E-02
3.58500000E+09	 1.00061454E+00	 1.29220345E-02
3.59000000E+09	 1.00067328E+00	 4.50545792E-02
3.59500000E+09	 1.00075237E+00	 4.31506451E-02
3.60000000E+09	 1.00097393E+00	 3.96493894E-02
3.60500000E+09	 1.00060726E+00	 4.15124116E-02
3.61000000E+09	 1.00105182E+00	 4.91588258E-02
3.61500000E+09	 1.00100560E+00	 5.94098816E-02
3.62000000E+09	 1.00123280E+00	 4.18263435E-02
3.62500000E+09	 1.00140056E+00	-2.95556858E-05
3.63000000E+09	 1.00101907E+00	 6.29215143E-02
3.63500000E+09	 1.00135502E+00	 4.42917716E-02
3.64000000E+09	 1.00144813E+00	 5.52368951E-02
3.64500000E+09	 1.00166741E+00	 6.09421399E-02
3.65000000E+09	 1.00195178E+00	 9.17013898E-02
3.65500000E+09	 1.00183084E+00	 7.03977599E-02
3.66000000E+09	 1.00202061E+00	 9.07146312E-02
3.66500000E+09	 1.00178660E+00	 7.27269972E-02
3.67000000E+09	 1.00232431E+00	 9.65862687E-02
3.67500000E+09	 1.00319468E+00	 1.10220536E-01
3.68000000E+09	 1.00269486E+00	 1.12087395E-01
3.68500000E+09	 1.00267265E+00	 1.19731052E-01
3.69000000E+09	 1.00269176E+00	 1.33261495E-01
3.69500000E+09	 1.00315717E+00	 1.26159310E-01
3.70000000E+09	 1.00315679E+00	 1.26711002E-01
3.70500000E+09	 1.00295993E+00	 1.35612766E-01
3.71000000E+09	 1.00325440E+00	 1.40650108E-01
3.71500000E+09	 1.00341453E+00	 1.50488636E-01
3.72000000E+09	 1.00344801E+00	 1.60139758E-01
3.72500000E+09	 1.00367167E+00	 1.60475470E-01
3.73000000E+09	 1.00393574E+00	 1.81416981E-01
3.73500000E+09	 1.00393221E+00	 1.86687899E-01
3.74000000E+09	 1.00390140E+00	 1.91377807E-01
3.74500000E+09	 1.00434343E+00	 1.93527158E-01
3.75000000E+09	 1.00434828E+00	 1.94792959E-01
3.75500000E+09	 1.00456532E+00	 2.12430639E-01
3.76000000E+09	 1.00466083E+00	 2.04533372E-01
3.76500000E+09	 1.00473787E+00	 2.23678950E-01
3.77000000E+09	 1.00500423E+00	 2.31322492E-01
3.77500000E+09	 1.00522192E+00	 2.36109260E-01
3.78000000E+09	 1.00543540E+00	 2.53836600E-01
3.78500000E+09	 1.00533936E+00	 2.44013688E-01
3.79000000E+09	 1.00573327E+00	 2.77795529E-01
3.79500000E+09	 1.00574824E+00	 2.68508059E-01
3.80000000E+09	 1.00573165E+00	 2.84728335E-01
3.80500000E+09	 1.00610943E+00	 3.03948340E-01
3.81000000E+09	 1.00612981E+00	 2.91928288E-01
3.81500000E+09	 1.00635194E+00	 2.82221749E-01
3.82000000E+09	 1.00643325E+00	 3.09557265E-01
3.82500000E+09	 1.00684585E+00	 3.04124552E-01
3.83000000E+09	 1.00690984E+00	 3.10131091E-01
3.83500000E+09	 1.00696246E+00	 3.12073014E-01
3.84000000E+09	 1.00699326E+00	 3.14827371E-01
3.84500000E+09	 1.00740268E+00	 3.30067837E-01
3.85000000E+09	 1.00754888E+00	 3.30781546E-01
3.85500000E+09	 1.00762683E+00	 3.42889560E-01
3.86000000E+09	 1.00778530E+00	 3.49740500E-01
3.86500000E+09	 1.00831982E+00	 3.35908448E-01
3.87000000E+09	 1.00822892E+00	 3.56772170E-01
3.87500000E+09	 1.00844993E+00	 3.58903694E-01
3.88000000E+09	 1.00873279E+00	 3.69413770E-01
3.88500000E+09	 1.00873592E+00	 3.66462983E-01
3.89000000E+09	 1.00883474E+00	 3.71989195E-01
3.89500000E+09	 1.00951311E+00	 3.61928318E-01
3.90000000E+09	 1.00939204E+00	 3.85774997E-01
3.90500000E+09	 1.00939755E+00	 3.80951017E-01
3.91000000E+09	 1.00949511E+00	 3.89981668E-01
3.91500000E+09	 1.00976993E+00	 4.09807720E-01
3.92000000E+09	 1.01003366E+00	 3.86039655E-01
3.92500000E+09	 1.01016001E+00	 3.82993195E-01
3.93000000E+09	 1.01025264E+00	 4.04311969E-01
3.93500000E+09	 1.01050163E+00	 4.08411840E-01
3.94000000E+09	 1.01080377E+00	 3.89783808E-01
3.94500000E+09	 1.01080673E+00	 4.02048236E-01
3.95000000E+09	 1.01107861E+00	 4.22164722E-01
3.95500000E+09	 1.01119947E+00	 4.17023522E-01
3.96000000E+09	 1.01120922E+00	 4.31233683E-01
3.96500000E+09	 1.01171856E+00	 4.27028241E-01
3.97000000E+09	 1.01170308E+00	 4.34981014E-01
3.97500000E+09	 1.01176913E+00	 4.27285208E-01
3.98000000E+09	 1.01200798E+00	 4.48871681E-01
3.98500000E+09	 1.01234536E+00	 4.33819312E-01
3.99000000E+09	 1.01227778E+00	 4.45811863E-01
3.99500000E+09	 1.01257550E+00	 4.45696038E-01
4.00000000E+09	 1.01266618E+00	 4.50816210E-01
4.00500000E+09	 1.01299712E+00	 4.51696612E-01
4.01000000E+09	 1.01306799E+00	 4.71219461E-01
4.01500000E+09	 1.01331781E+00	 4.65154922E-01
4.02000000E+09	 1.01360996E+00	 4.69170632E-01
4.02500000E+09	 1.01365186E+00	 4.78700672E-01
4.03000000E+09	 1.01379087E+00	 4.75567350E-01
4.03500000E+09	 1.01377078E+00	 4.77950203E-01
4.04000000E+09	 1.01401554E+00	 4.84663889E-01
4.04500000E+09	 1.01421492E+00	 4.93018058E-01
4.05000000E+09	 1.01436205E+00	 4.92611821E-01
4.05500000E+09	 1.01451658E+00	 4.88421551E-01
4.06000000E+09	 1.01473245E+00	 4.88170111E-01
4.06500000E+09	 1.01486265E+00	 4.92198415E-01
4.07000000E+09	 1.01501627E+00	 4.99952266E-01
4.07500000E+09	 1.01518353E+00	 5.04986809E-01
4.08000000E+09	 1.01535123E+00	 5.13995237E-01
4.08500000E+09	 1.01528517E+00	 5.16713727E-01
4.09000000E+09	 1.01553036E+00	 5.11460663E-01
4.09500000E+09	 1.01569496E+00	 5.14345641E-01
4.10000000E+09	 1.01595930E+00	 5.22555885E-01
4.10500000E+09	 1.01608611E+00	 5.34253070E-01
4.11000000E+09	 1.01618285E+00	 5.35735729E-01
4.11500000E+09	 1.01624587E+00	 5.42813112E-01
4.12000000E+09	 1.01663241E+00	 5.31338149E-01
4.12500000E+09	 1.01664224E+00	 5.45499961E-01
4.13000000E+09	 1.01654291E+00	 5.42209099E-01
4.13500000E+09	 1.01704755E+00	 5.56643462E-01
4.14000000E+09	 1.01699261E+00	 5.64331784E-01
4.14500000E+09	 1.01719473E+00	 5.61702245E-01
4.15000000E+09	 1.01720812E+00	 5.67611513E-01
4.15500000E+09	 1.01757109E+00	 5.80047493E-01
4.16000000E+09	 1.01768389E+00	 5.69042158E-01
4.16500000E+09	 1.01752618E+00	 5.77169320E-01
4.17000000E+09	 1.01792961E+00	 5.91135603E-01
4.17500000E+09	 1.01758848E+00	 5.87836992E-01
4.18000000E+09	 1.01817896E+00	 5.89317437E-01
4.18500000E+09	 1.01813050E+00	 5.79001321E-01
4.19000000E+09	 1.01824451E+00	 5.89763495E-01
4.19500000E+09	 1.01846543E+00	 6.00199716E-01
4.20000000E+09	 1.01848947E+00	 6.04511628E-01
4.20500000E+09	 1.01854959E+00	 5.95060374E-01
4.21000000E+09	 1.01863845E+00	 6.13618373E-01
4.21500000E+09	 1.01879495E+00	 6.28383513E-01
4.22000000E+09	 1.01905315E+00	 6.27019337E-01
4.22500000E+09	 1.01920720E+00	 6.46736728E-01
4.23000000E+09	 1.01900362E+00	 6.28294307E-01
4.23500000E+09	 1.01898922E+00	 6.45626063E-01
4.24000000E+09	 1.01927450E+00	 6.40859995E-01
4.24500000E+09	 1.01931734E+00	 6.23386791E-01
4.25000000E+09	 1.01921260E+00	 6.50156333E-01
4.25500000E+09	 1.01888843E+00	 6.53484814E-01
4.26000000E+09	 1.01950112E+00	 6.74192197E-01
4.26500000E+09	 1.01904231E+00	 6.65329182E-01
4.27000000E+09	 1.01950527E+00	 6.84779797E-01
4.27500000E+09	 1.01957126E+00	 6.80951875E-01
4.28000000E+09	 1.01937998E+00	 6.80052543E-01
4.28500000E+09	 1.01954522E+00	 6.72507672E-01
4.29000000E+09	 1.01958020E+00	 6.93903735E-01
4.29500000E+09	 1.01961161E+00	 6.96290454E-01
4.30000000E+09	 1.01954524E+00	 6.96202322E-01
4.30500000E+09	 1.01941009E+00	 6.94717133E-01
4.31000000E+09	 1.01948186E+00	 7.16120057E-01
4.31500000E+09	 1.01954340E+00	 7.12727401E-01
4.32000000E+09	 1.01958127E+00	 7.07815436E-01
4.32500000E+09	 1.01951763E+00	 7.03082730E-01
4.33000000E+09	 1.01956343E+00	 7.10507950E-01
4.33500000E+09	 1.01940732E+00	 7.05171312E-01
4.34000000E+09	 1.01934682E+00	 7.21809805E-01
4.34500000E+09	 1.01945189E+00	 7.11876420E-01
4.35000000E+09	 1.01934968E+00	 7.30189039E-01
4.35500000E+09	 1.01940304E+00	 7.28315541E-01
4.36000000E+09	 1.01925110E+00	 7.22321851E-01
4.36500000E+09	 1.01909421E+00	 7.42155803E-01
4.37000000E+09	 1.01927210E+00	 7.25972235E-01
4.37500000E+09	 1.01945907E+00	 7.42006746E-01
4.38000000E+09	 1.01904368E+00	 7.32994382E-01
4.38500000E+09	 1.01916731E+00	 7.21382116E-01
4.39000000E+09	 1.01883494E+00	 7.35126121E-01
4.39500000E+09	 1.01897601E+00	 7.36486254E-01
4.40000000E+09	 1.01902078E+00	 7.26026310E-01
4.40500000E+09	 1.01839539E+00	 7.57654120E-01
4.41000000E+09	 1.01834690E+00	 7.24307014E-01
4.41500000E+09	 1.01866025E+00	 7.15577182E-01
4.42000000E+09	 1.01831726E+00	 7.37897926E-01
4.42500000E+09	 1.01813372E+00	 7.32770057E-01
4.43000000E+09	 1.01822695E+00	 7.29775666E-01
4.43500000E+09	 1.01796310E+00	 7.19441888E-01
4.44000000E+09	 1.01777723E+00	 7.48409506E-01
4.44500000E+09	 1.01748291E+00	 7.34469027E-01
4.45000000E+09	 1.01781904E+00	 7.09379768E-01
4.45500000E+09	 1.01783305E+00	 7.20438271E-01
4.46000000E+09	 1.01725884E+00	 7.35385845E-01
4.46500000E+09	 1.01718771E+00	 7.15880066E-01
4.47000000E+09	 1.01723176E+00	 7.17416451E-01
4.47500000E+09	 1.01694678E+00	 7.28338335E-01
4.48000000E+09	 1.01676487E+00	 6.91361686E-01
4.48500000E+09	 1.01684424E+00	 7.12606389E-01
4.49000000E+09	 1.01623974E+00	 7.05667581E-01
4.49500000E+09	 1.01590698E+00	 6.95087376E-01
4.50000000E+09	 1.01587006E+00	 6.74430887E-01
4.50500000E+09	 1.01592906E+00	 6.77293012E-01
4.51000000E+09	 1.01554459E+00	 6.98830724E-01
4.51500000E+09	 1.01517764E+00	 6.78753740E-01
4.52000000E+09	 1.01537430E+00	 6.77810351E-01
4.52500000E+09	 1.01534701E+00	 6.44869359E-01
4.53000000E+09	 1.01499100E+00	 6.66525649E-01
4.53500000E+09	 1.01510691E+00	 6.49602091E-01
4.54000000E+09	 1.01451277E+00	 6.31246579E-01
4.54500000E+09	 1.01420026E+00	 6.51190352E-01
4.55000000E+09	 1.01406957E+00	 6.23632696E-01
4.55500000E+09	 1.01387888E+00	 6.17624985E-01
4.56000000E+09	 1.01381966E+00	 6.09897104E-01
4.56500000E+09	 1.01313870E+00	 5.84846352E-01
4.57000000E+09	 1.01340772E+00	 5.97116317E-01
4.57500000E+09	 1.01289823E+00	 5.90260562E-01
4.58000000E+09	 1.01306276E+00	 5.82499638E-01
4.58500000E+09	 1.01237420E+00	 5.63486042E-01
4.59000000E+09	 1.01259071E+00	 5.63951011E-01
4.59500000E+09	 1.01216096E+00	 5.50192714E-01
4.60000000E+09	 1.01196022E+00	 5.42068384E-01
4.60500000E+09	 1.01176226E+00	 5.30411565E-01
4.61000000E+09	 1.01150697E+00	 5.22041235E-01
4.61500000E+09	 1.01139769E+00	 5.12290824E-01
4.62000000E+09	 1.01117116E+00	 5.04428815E-01
4.62500000E+09	 1.01095043E+00	 4.92272400E-01
4.63000000E+09	 1.01072315E+00	 4.84360802E-01
4.63500000E+09	 1.01056376E+00	 4.76226438E-01
4.64000000E+09	 1.01029041E+00	 4.59645993E-01
4.64500000E+09	 1.01007422E+00	 4.53086850E-01
4.65000000E+09	 1.00968713E+00	 4.41634695E-01
4.65500000E+09	 1.00955371E+00	 4.34659284E-01
4.66000000E+09	 1.00947154E+00	 4.29758050E-01
4.66500000E+09	 1.00938381E+00	 4.31924199E-01
4.67000000E+09	 1.00906093E+00	 4.12395459E-01
4.67500000E+09	 1.00885294E+00	 3.92826128E-01
4.68000000E+09	 1.00870609E+00	 3.88559864E-01
4.68500000E+09	 1.00843979E+00	 3.70907906E-01
4.69000000E+09	 1.00821578E+00	 3.75923589E-01
4.69500000E+09	 1.00805032E+00	 3.56993045E-01
4.70000000E+09	 1.00767104E+00	 3.53335297E-01
4.70500000E+09	 1.00764526E+00	 3.22425348E-01
4.71000000E+09	 1.00762277E+00	 3.42543107E-01
4.71500000E+09	 1.00701181E+00	 3.24711029E-01
4.72000000E+09	 1.00685325E+00	 2.94118230E-01
4.72500000E+09	 1.00708008E+00	 3.28674701E-01
4.73000000E+09	 1.00703614E+00	 3.19924397E-01
4.73500000E+09	 1.00652248E+00	 2.83808187E-01
4.74000000E+09	 1.00646237E+00	 2.75231110E-01
4.74500000E+09	 1.00609776E+00	 2.67338922E-01
4.75000000E+09	 1.00629070E+00	 2.66444456E-01
4.75500000E+09	 1.00569939E+00	 2.62319095E-01
4.76000000E+09	 1.00578136E+00	 2.44140599E-01
4.76500000E+09	 1.00549676E+00	 2.14430476E-01
4.77000000E+09	 1.00524367E+00	 2.46457956E-01
4.77500000E+09	 1.00536567E+00	 1.95189336E-01
4.78000000E+09	 1.00493345E+00	 2.04898406E-01
4.78500000E+09	 1.00485920E+00	 1.87410180E-01
4.79000000E+09	 1.00457241E+00	 1.90241666E-01
4.79500000E+09	 1.00452019E+00	 1.74140826E-01
4.80000000E+09	 1.00452839E+00	 1.68835349E-01
4.80500000E+09	 1.00423695E+00	 1.44502418E-01
4.81000000E+09	 1.00412125E+00	 1.62214066E-01
4.81500000E+09	 1.00399542E+00	 1.34501514E-01
4.82000000E+09	 1.00395712E+00	 1.28891867E-01
4.82500000E+09	 1.00360762E+00	 1.09283184E-01
4.83000000E+09	 1.00364784E+00	 1.00522074E-01
4.83500000E+09	 1.00346770E+00	 9.14905929E-02
4.84000000E+09	 1.00335137E+00	 8.56635913E-02
4.84500000E+09	 1.00319421E+00	 6.53098870E-02
4.85000000E+09	 1.00307131E+00	 5.88443224E-02
4.85500000E+09	 1.00298168E+00	 5.34059673E-02
4.86000000E+09	 1.00265383E+00	 4.68022080E-02
4.86500000E+09	 1.00262453E+00	 5.08491185E-02
4.87000000E+09	 1.00255120E+00	 3.46686836E-02
4.87500000E+09	 1.00246643E+00	 3.04983568E-02
4.88000000E+09	 1.00233411E+00	 1.86352830E-02
4.88500000E+09	 1.00194774E+00	 1.34280685E-02
4.89000000E+09	 1.00202913E+00	 8.70184351E-03
4.89500000E+09	 1.00216926E+00	 7.91295383E-03
4.90000000E+09	 1.00202269E+00	 6.26524235E-03
4.90500000E+09	 1.00168280E+00	-5.90622518E-03
4.91000000E+09	 1.00147122E+00	-1.73735158E-02
4.91500000E+09	 1.00144528E+00	-1.54210544E-02
4.92000000E+09	 1.00156447E+00	-3.21810440E-02
4.92500000E+09	 1.00111914E+00	-2.05228504E-02
4.93000000E+09	 1.00120794E+00	-2.39168746E-02
4.93500000E+09	 1.00091369E+00	-3.05451321E-02
4.94000000E+09	 1.00084617E+00	-2.99315731E-02
4.94500000E+09	 1.00125766E+00	-2.74468490E-02
4.95000000E+09	 1.00079508E+00	-3.74706436E-02
4.95500000E+09	 1.00083722E+00	-4.70871205E-02
4.96000000E+09	 1.00080507E+00	-4.26916437E-02
4.96500000E+09	 1.00069440E+00	-4.55433497E-02
4.97000000E+09	 1.00073175E+00	-4.87359856E-02
4.97500000E+09	 1.00066315E+00	-5.73353223E-02
4.98000000E+09	 1.00051504E+00	-6.12683472E-02
4.98500000E+09	 1.00013875E+00	-6.77972785E-02
4.99000000E+09	 1.00052802E+00	-6.16761399E-02
4.99500000E+09	 1.00048523E+00	-7.33827155E-02
5.00000000E+09	 1.00065832E+00	-9.08541783E-02
5.00500000E+09	 1.00047982E+00	-7.52223467E-02
5.01000000E+09	 1.00067250E+00	-1.02466775E-01
5.01500000E+09	 1.00057267E+00	-8.65024947E-02
5.02000000E+09	 1.00035497E+00	-8.14616299E-02
5.02500000E+09	 1.00025571E+00	-8.97485985E-02
5.03000000E+09	 1.00022323E+00	-9.19093354E-02
5.03500000E+09	 1.00017399E+00	-9.94544583E-02
5.04000000E+09	 1.00017961E+00	-8.70134560E-02
5.04500000E+09	 1.00008269E+00	-9.49964262E-02
5.05000000E+09	 1.00036443E+00	-9.81493597E-02
5.05500000E+09	 1.00058526E+00	-1.00168119E-01
5.06000000E+09	 1.00015589E+00	-9.66562320E-02
5.06500000E+09	 1.00019328E+00	-9.25180849E-02
5.07000000E+09	 1.00013524E+00	-1.08420242E-01
5.07500000E+09	 1.00027056E+00	-1.09502974E-01
5.08000000E+09	 9.99940831E-01	-1.22585629E-01
5.08500000E+09	 1.00001608E+00	-8.97804734E-02
5.09000000E+09	 1.00026088E+00	-1.03005699E-01
5.09500000E+09	 1.00004548E+00	-1.16317515E-01
5.10000000E+09	 1.00017130E+00	-1.06888976E-01
5.10500000E+09	 1.00021170E+00	-6.77731276E-02
5.11000000E+09	 1.00036670E+00	-1.03287762E-01
5.11500000E+09	 1.00008932E+00	-1.05122517E-01
5.12000000E+09	 1.00023536E+00	-9.94024238E-02
5.12500000E+09	 1.00023193E+00	-8.78625855E-02
5.13000000E+09	 1.00032748E+00	-8.69969228E-02
5.13500000E+09	 1.00043766E+00	-9.39150168E-02
5.14000000E+09	 1.00045589E+00	-8.04827484E-02
5.14500000E+09	 1.00033539E+00	-9.19999075E-02
5.15000000E+09	 1.00036162E+00	-8.85518951E-02
5.15500000E+09	 1.00051538E+00	-7.87177306E-02
5.16000000E+09	 1.00047403E+00	-8.42574887E-02
5.16500000E+09	 1.00063038E+00	-7.55126747E-02
5.17000000E+09	 1.00069099E+00	-7.30391792E-02
5.17500000E+09	 1.00062391E+00	-6.13374675E-02
5.18000000E+09	 1.00085411E+00	-7.19695983E-02
5.18500000E+09	 1.00097963E+00	-6.14098873E-02
5.19000000E+09	 1.00089358E+00	-5.61732367E-02
5.19500000E+09	 1.00115691E+00	-5.72946604E-02
5.20000000E+09	 1.00117924E+00	-5.13840900E-02
5.20500000E+09	 1.00124262E+00	-4.47526654E-02
5.21000000E+09	 1.00127931E+00	-4.20373627E-02
5.21500000E+09	 1.00137553E+00	-3.89684819E-02
5.22000000E+09	 1.00141083E+00	-2.95436766E-02
5.22500000E+09	 1.00142112E+00	-3.24659906E-02
5.23000000E+09	 1.00167278E+00	-1.87842296E-02
5.23500000E+09	 1.00171327E+00	-1.90095054E-02
5.24000000E+09	 1.00174812E+00	-7.65785063E-03
5.24500000E+09	 1.00168329E+00	-5.87528724E-03
5.25000000E+09	 1.00175317E+00	-9.50186551E-03
5.25500000E+09	 1.00174239E+00	 1.29732644E-02
5.26000000E+09	 1.00210118E+00	 1.30266102E-02
5.26500000E+09	 1.00222136E+00	 2.21954857E-02
5.27000000E+09	 1.00221217E+00	 2.57632953E-02
5.27500000E+09	 1.00242590E+00	 2.50582830E-02
5.28000000E+09	 1.00228363E+00	 3.39955740E-02
5.28500000E+09	 1.00224145E+00	 5.36775891E-02
5.29000000E+09	 1.00244928E+00	 5.41349971E-02
5.29500000E+09	 1.00288162E+00	 6.14760596E-02
5.30000000E+09	 1.00283204E+00	 6.52476406E-02
5.30500000E+09	 1.00263238E+00	 6.18989624E-02
5.31000000E+09	 1.00312968E+00	 7.41963065E-02
5.31500000E+09	 1.00319433E+00	 9.60885897E-02
5.32000000E+09	 1.00298360E+00	 9.67088489E-02
5.32500000E+09	 1.00343978E+00	 1.24914030E-01
5.33000000E+09	 1.00337775E+00	 1.22004675E-01
5.33500000E+09	 1.00364898E+00	 1.24779885E-01
5.34000000E+09	 1.00381069E+00	 1.41925516E-01
5.34500000E+09	 1.00420599E+00	 1.55358342E-01
5.35000000E+09	 1.00396689E+00	 1.55011935E-01
5.35500000E+09	 1.00395298E+00	 1.66316213E-01
5.36000000E+09	 1.00425009E+00	 1.75313028E-01
5.36500000E+09	 1.00403444E+00	 2.02221823E-01
5.37000000E+09	 1.00444668E+00	 1.97287250E-01
5.37500000E+09	 1.00455014E+00	 2.18834507E-01
5.38000000E+09	 1.00462048E+00	 2.16039151E-01
5.38500000E+09	 1.00478771E+00	 2.24478752E-01
5.39000000E+09	 1.00502933E+00	 2.35590838E-01
5.39500000E+09	 1.00501412E+00	 2.40778740E-01
5.40000000E+09	 1.00532591E+00	 2.48696678E-01
5.40500000E+09	 1.00530360E+00	 2.54884315E-01
5.41000000E+09	 1.00550218E+00	 2.69052144E-01
5.41500000E+09	 1.00564909E+00	 2.73661868E-01
5.42000000E+09	 1.00579660E+00	 2.85132872E-01
5.42500000E+09	 1.00597578E+00	 2.97367188E-01
5.43000000E+09	 1.00607946E+00	 3.00659301E-01
5.43500000E+09	 1.00614679E+00	 3.10188873E-01
5.44000000E+09	 1.00626418E+00	 3.20879726E-01
5.44500000E+09	 1.00657074E+00	 3.27282857E-01
5.45000000E+09	 1.00665495E+00	 3.42097301E-01
5.45500000E+09	 1.00683769E+00	 3.43836360E-01
5.46000000E+09	 1.00693764E+00	 3.52157155E-01
5.46500000E+09	 1.00717507E+00	 3.60118818E-01
5.47000000E+09	 1.00726622E+00	 3.68731585E-01
5.47500000E+09	 1.00742044E+00	 3.82983101E-01
5.48000000E+09	 1.00754753E+00	 3.85550302E-01
5.48500000E+09	 1.00785612E+00	 3.86378151E-01
5.49000000E+09	 1.00801252E+00	 3.94734401E-01
5.49500000E+09	 1.00830155E+00	 4.02076043E-01
5.50000000E+09	 1.00843247E+00	 4.20096194E-01
5.50500000E+09	 1.00835438E+00	 4.18810696E-01
5.51000000E+09	 1.00866954E+00	 4.34581131E-01
5.51500000E+09	 1.00873996E+00	 4.47021237E-01
5.52000000E+09	 1.00891854E+00	 4.41583794E-01
5.52500000E+09	 1.00910863E+00	 4.46795169E-01
5.53000000E+09	 1.00901470E+00	 4.45155886E-01
5.53500000E+09	 1.00945186E+00	 4.69206684E-01
5.54000000E+09	 1.00977323E+00	 4.72212484E-01
5.54500000E+09	 1.00988628E+00	 4.77163344E-01
5.55000000E+09	 1.00999257E+00	 4.78679124E-01
5.55500000E+09	 1.01018140E+00	 4.79760485E-01
5.56000000E+09	 1.01033527E+00	 4.83641650E-01
5.56500000E+09	 1.01057150E+00	 5.24900944E-01
5.57000000E+09	 1.01057098E+00	 5.03276622E-01
5.57500000E+09	 1.01041734E+00	 5.21923998E-01
5.58000000E+09	 1.01105348E+00	 5.10096498E-01
5.58500000E+09	 1.01079335E+00	 5.24783338E-01
5.59000000E+09	 1.01156164E+00	 5.19005267E-01
5.59500000E+09	 1.01147322E+00	 5.29084413E-01
5.60000000E+09	 1.01162450E+00	 5.13196980E-01
5.60500000E+09	 1.01193803E+00	 5.51313754E-01
5.61000000E+09	 1.01213712E+00	 5.47022326E-01
5.61500000E+09	 1.01191379E+00	 5.56560345E-01
5.62000000E+09	 1.01241052E+00	 5.53525844E-01
5.62500000E+09	 1.01225998E+00	 5.16266728E-01
5.63000000E+09	 1.01320537E+00	 5.60018909E-01
5.63500000E+09	 1.01309397E+00	 5.48033933E-01
5.64000000E+09	 1.01299416E+00	 5.37784249E-01
5.64500000E+09	 1.01363214E+00	 5.42925137E-01
5.65000000E+09	 1.01398221E+00	 5.67252800E-01
5.65500000E+09	 1.01402894E+00	 5.60166376E-01
5.66000000E+09	 1.01391085E+00	 5.76112851E-01
5.66500000E+09	 1.01417431E+00	 5.81878933E-01
5.67000000E+09	 1.01430191E+00	 5.60702302E-01
5.67500000E+09	 1.01443030E+00	 5.69274669E-01
5.68000000E+09	 1.01459975E+00	 5.63596920E-01
5.68500000E+09	 1.01503983E+00	 5.66390377E-01
5.69000000E+09	 1.01514700E+00	 5.71474100E-01
5.69500000E+09	 1.01483027E+00	 5.96790609E-01
5.70000000E+09	 1.01534269E+00	 5.81989685E-01
5.70500000E+09	 1.01596001E+00	 5.79973958E-01
5.71000000E+09	 1.01591138E+00	 5.75781626E-01
5.71500000E+09	 1.01594740E+00	 5.93216065E-01
5.72000000E+09	 1.01617931E+00	 5.88902956E-01
5.72500000E+09	 1.01621947E+00	 5.69399636E-01
5.73000000E+09	 1.01659667E+00	 5.91617855E-01
5.73500000E+09	 1.01661265E+00	 6.10112391E-01
5.74000000E+09	 1.01700478E+00	 5.92787431E-01
5.74500000E+09	 1.01689436E+00	 5.89946412E-01
5.75000000E+09	 1.01728826E+00	 5.96592468E-01
5.75500000E+09	 1.01743916E+00	 6.00969017E-01
5.76000000E+09	 1.01771585E+00	 5.97965482E-01
5.76500000E+09	 1.01782627E+00	 6.02191343E-01
5.77000000E+09	 1.01799290E+00	 5.99713570E-01
5.77500000E+09	 1.01819336E+00	 5.96967891E-01
5.78000000E+09	 1.01841104E+00	 5.97990022E-01
5.78500000E+09	 1.01872575E+00	 5.92740967E-01
5.79000000E+09	 1.01871001E+00	 6.03413429E-01
5.79500000E+09	 1.01901441E+00	 5.94205543E-01
5.80000000E+09	 1.01916090E+00	 5.95474754E-01
5.80500000E+09	 1.01934218E+00	 6.04964562E-01
5.81000000E+09	 1.01950206E+00	 5.90508155E-01
5.81500000E+09	 1.01976629E+00	 5.85242656E-01
5.82000000E+09	 1.02004579E+00	 5.93830033E-01
5.82500000E+09	 1.01986638E+00	 5.89019008E-01
5.83000000E+09	 1.02035232E+00	 5.93736788E-01
5.83500000E+09	 1.02055979E+00	 5.88077190E-01
5.84000000E+09	 1.02082848E+00	 5.92346957E-01
5.84500000E+09	 1.02083858E+00	 6.06968870E-01
5.85000000E+09	 1.02112878E+00	 5.90355146E-01
5.85500000E+09	 1.02124429E+00	 6.00562521E-01
5.86000000E+09	 1.02130464E+00	 5.83533300E-01
5.86500000E+09	 1.02109781E+00	 6.10628000E-01
5.87000000E+09	 1.02159680E+00	 5.75350002E-01
5.87500000E+09	 1.02212538E+00	 6.02745662E-01
5.88000000E+09	 1.02222416E+00	 5.90638640E-01
5.88500000E+09	 1.02238284E+00	 5.97255451E-01
5.89000000E+09	 1.02264649E+00	 5.95403765E-01
5.89500000E+09	 1.02297127E+00	 6.15050464E-01
5.90000000E+09	 1.02269858E+00	 6.09608457E-01
5.90500000E+09	 1.02369833E+00	 6.02430296E-01
5.91000000E+09	 1.02341088E+00	 5.93299221E-01
5.91500000E+09	 1.02343046E+00	 6.04997537E-01
5.92000000E+09	 1.02351119E+00	 5.95192841E-01
5.92500000E+09	 1.02409486E+00	 5.93666155E-01
5.93000000E+09	 1.02421373E+00	 5.80597876E-01
5.93500000E+09	 1.02454407E+00	 6.15358599E-01
5.94000000E+09	 1.02436425E+00	 5.87404746E-01
5.94500000E+09	 1.02460734E+00	 5.76458774E-01
5.95000000E+09	 1.02450414E+00	 5.93313362E-01
5.95500000E+09	 1.02524439E+00	 5.89869327E-01
5.96000000E+09	 1.02482611E+00	 5.91215216E-01
5.96500000E+09	 1.02502903E+00	 5.95694577E-01
5.97000000E+09	 1.02554579E+00	 5.88072950E-01
5.97500000E+09	 1.02515898E+00	 6.15149286E-01
5.98000000E+09	 1.02559504E+00	 5.86875903E-01
5.98500000E+09	 1.02582587E+00	 5.82129790E-01
5.99000000E+09	 1.02599440E+00	 6.00372190E-01
5.99500000E+09	 1.02611032E+00	 6.01501864E-01
6.00000000E+09	 1.02582411E+00	 5.84413148E-01
