! COPPER MOUNTAIN TECHNOLOGIES, R60, 23103002, 24.3.3/3.0
! Date: 24/6/2026 15:46:39
! Data: Format [Calibration Info]
! Frequency		S11: Mag/Ang F1                
# HZ S MA R 50
1.00000000E+08	 9.96584397E-01	-2.17892267E+00
1.05000000E+08	 9.96142940E-01	-2.28033555E+00
1.10000000E+08	 9.95768631E-01	-2.39074362E+00
1.15000000E+08	 9.95520739E-01	-2.49694599E+00
1.20000000E+08	 9.94987048E-01	-2.59365808E+00
1.25000000E+08	 9.94611408E-01	-2.70934179E+00
1.30000000E+08	 9.94207328E-01	-2.81951442E+00
1.35000000E+08	 9.93758305E-01	-2.92128479E+00
1.40000000E+08	 9.93241868E-01	-3.02496784E+00
1.45000000E+08	 9.92879068E-01	-3.12878546E+00
1.50000000E+08	 9.92311699E-01	-3.23634389E+00
1.55000000E+08	 9.91896503E-01	-3.33330307E+00
1.60000000E+08	 9.91378732E-01	-3.44145211E+00
1.65000000E+08	 9.90849066E-01	-3.53570051E+00
1.70000000E+08	 9.90477323E-01	-3.63881892E+00
1.75000000E+08	 9.89930188E-01	-3.74305427E+00
1.80000000E+08	 9.89251238E-01	-3.83408378E+00
1.85000000E+08	 9.88726494E-01	-3.93803583E+00
1.90000000E+08	 9.88250849E-01	-4.03999079E+00
1.95000000E+08	 9.87660427E-01	-4.14182195E+00
2.00000000E+08	 9.86944029E-01	-4.23186326E+00
2.05000000E+08	 9.86348562E-01	-4.33844669E+00
2.10000000E+08	 9.85810313E-01	-4.43374618E+00
2.15000000E+08	 9.85033023E-01	-4.52443154E+00
2.20000000E+08	 9.84475354E-01	-4.63004285E+00
2.25000000E+08	 9.83639865E-01	-4.71652054E+00
2.30000000E+08	 9.83003740E-01	-4.81219029E+00
2.35000000E+08	 9.82434477E-01	-4.90256161E+00
2.40000000E+08	 9.81659870E-01	-4.99737231E+00
2.45000000E+08	 9.81054097E-01	-5.08764807E+00
2.50000000E+08	 9.80448266E-01	-5.18292135E+00
2.55000000E+08	 9.79624798E-01	-5.27373410E+00
2.60000000E+08	 9.78936600E-01	-5.36147783E+00
2.65000000E+08	 9.78232930E-01	-5.45595424E+00
2.70000000E+08	 9.77264095E-01	-5.54582399E+00
2.75000000E+08	 9.76574541E-01	-5.63537812E+00
2.80000000E+08	 9.75865284E-01	-5.72085781E+00
2.85000000E+08	 9.75106471E-01	-5.80263271E+00
2.90000000E+08	 9.74295813E-01	-5.89701829E+00
2.95000000E+08	 9.73665466E-01	-5.97817592E+00
3.00000000E+08	 9.72823865E-01	-6.06664140E+00
3.05000000E+08	 9.72148520E-01	-6.14027817E+00
3.10000000E+08	 9.71276272E-01	-6.22931902E+00
3.15000000E+08	 9.70462701E-01	-6.31580086E+00
3.20000000E+08	 9.69723627E-01	-6.39475298E+00
3.25000000E+08	 9.68879694E-01	-6.47410507E+00
3.30000000E+08	 9.68038090E-01	-6.55369271E+00
3.35000000E+08	 9.67222892E-01	-6.63438428E+00
3.40000000E+08	 9.66557716E-01	-6.71360605E+00
3.45000000E+08	 9.65679295E-01	-6.78724129E+00
3.50000000E+08	 9.64824297E-01	-6.86183727E+00
3.55000000E+08	 9.63999524E-01	-6.93682805E+00
3.60000000E+08	 9.63114113E-01	-7.01940964E+00
3.65000000E+08	 9.62152817E-01	-7.09902143E+00
3.70000000E+08	 9.61393484E-01	-7.17183145E+00
3.75000000E+08	 9.60532616E-01	-7.23949101E+00
3.80000000E+08	 9.59791380E-01	-7.31268947E+00
3.85000000E+08	 9.58898829E-01	-7.38767642E+00
3.90000000E+08	 9.58075783E-01	-7.45881374E+00
3.95000000E+08	 9.57241472E-01	-7.52308817E+00
4.00000000E+08	 9.56311418E-01	-7.60192588E+00
4.05000000E+08	 9.55571232E-01	-7.66996987E+00
4.10000000E+08	 9.54640629E-01	-7.73773520E+00
4.15000000E+08	 9.53906233E-01	-7.79824803E+00
4.20000000E+08	 9.52904848E-01	-7.86499272E+00
4.25000000E+08	 9.52087057E-01	-7.93500800E+00
4.30000000E+08	 9.51215684E-01	-7.99684134E+00
4.35000000E+08	 9.50503635E-01	-8.05806018E+00
4.40000000E+08	 9.49598042E-01	-8.12786363E+00
4.45000000E+08	 9.48691214E-01	-8.19229527E+00
4.50000000E+08	 9.47777854E-01	-8.26037962E+00
4.55000000E+08	 9.46968235E-01	-8.32079574E+00
4.60000000E+08	 9.46078789E-01	-8.37847007E+00
4.65000000E+08	 9.45373151E-01	-8.43856466E+00
4.70000000E+08	 9.44460863E-01	-8.49856930E+00
4.75000000E+08	 9.43680177E-01	-8.55835553E+00
4.80000000E+08	 9.42786190E-01	-8.61088375E+00
4.85000000E+08	 9.41906318E-01	-8.66670677E+00
4.90000000E+08	 9.41017612E-01	-8.72881019E+00
4.95000000E+08	 9.40231847E-01	-8.77628986E+00
5.00000000E+08	 9.39396091E-01	-8.83084933E+00
5.05000000E+08	 9.38514745E-01	-8.88605966E+00
5.10000000E+08	 9.37708050E-01	-8.93528753E+00
5.15000000E+08	 9.36794587E-01	-8.99222060E+00
5.20000000E+08	 9.35898390E-01	-9.03796330E+00
5.25000000E+08	 9.35138999E-01	-9.10123207E+00
5.30000000E+08	 9.34355319E-01	-9.14560362E+00
5.35000000E+08	 9.33399132E-01	-9.19833562E+00
5.40000000E+08	 9.32660150E-01	-9.25068501E+00
5.45000000E+08	 9.31766174E-01	-9.30208819E+00
5.50000000E+08	 9.31001214E-01	-9.34328089E+00
5.55000000E+08	 9.30299012E-01	-9.38948802E+00
5.60000000E+08	 9.29278323E-01	-9.43636810E+00
5.65000000E+08	 9.28652314E-01	-9.48375466E+00
5.70000000E+08	 9.27652376E-01	-9.52607558E+00
5.75000000E+08	 9.26927943E-01	-9.56743769E+00
5.80000000E+08	 9.26013318E-01	-9.61518138E+00
5.85000000E+08	 9.25313393E-01	-9.65760741E+00
5.90000000E+08	 9.24511285E-01	-9.69561910E+00
5.95000000E+08	 9.23678260E-01	-9.73903996E+00
6.00000000E+08	 9.22838104E-01	-9.78153801E+00
6.05000000E+08	 9.22113333E-01	-9.82519877E+00
6.10000000E+08	 9.21257008E-01	-9.85929104E+00
6.15000000E+08	 9.20521957E-01	-9.89948388E+00
6.20000000E+08	 9.19780928E-01	-9.93328318E+00
6.25000000E+08	 9.19003548E-01	-9.97331922E+00
6.30000000E+08	 9.18207728E-01	-1.00072804E+01
6.35000000E+08	 9.17451766E-01	-1.00434229E+01
6.40000000E+08	 9.16622445E-01	-1.00779578E+01
6.45000000E+08	 9.15735104E-01	-1.01208858E+01
6.50000000E+08	 9.15158529E-01	-1.01514034E+01
6.55000000E+08	 9.14386747E-01	-1.01843218E+01
6.60000000E+08	 9.13581285E-01	-1.02084195E+01
6.65000000E+08	 9.12839331E-01	-1.02483375E+01
6.70000000E+08	 9.12210793E-01	-1.02757552E+01
6.75000000E+08	 9.11395522E-01	-1.03164101E+01
6.80000000E+08	 9.10499912E-01	-1.03449936E+01
6.85000000E+08	 9.09781911E-01	-1.03750301E+01
6.90000000E+08	 9.09161106E-01	-1.04088811E+01
6.95000000E+08	 9.08328832E-01	-1.04327382E+01
7.00000000E+08	 9.07532281E-01	-1.04605135E+01
7.05000000E+08	 9.06793841E-01	-1.04964307E+01
7.10000000E+08	 9.06223927E-01	-1.05183926E+01
7.15000000E+08	 9.05482344E-01	-1.05478705E+01
7.20000000E+08	 9.04790021E-01	-1.05748729E+01
7.25000000E+08	 9.04015013E-01	-1.05973254E+01
7.30000000E+08	 9.03302158E-01	-1.06198720E+01
7.35000000E+08	 9.02643055E-01	-1.06520433E+01
7.40000000E+08	 9.01781751E-01	-1.06755387E+01
7.45000000E+08	 9.01153888E-01	-1.06952032E+01
7.50000000E+08	 9.00482036E-01	-1.07252277E+01
7.55000000E+08	 8.99857248E-01	-1.07497689E+01
7.60000000E+08	 8.99171960E-01	-1.07682973E+01
7.65000000E+08	 8.98425620E-01	-1.07994524E+01
7.70000000E+08	 8.97705163E-01	-1.08194606E+01
7.75000000E+08	 8.97192362E-01	-1.08449571E+01
7.80000000E+08	 8.96409498E-01	-1.08665211E+01
7.85000000E+08	 8.95700283E-01	-1.08899278E+01
7.90000000E+08	 8.95035946E-01	-1.09107165E+01
7.95000000E+08	 8.94409272E-01	-1.09264797E+01
8.00000000E+08	 8.93698209E-01	-1.09508214E+01
8.05000000E+08	 8.93105519E-01	-1.09695416E+01
8.10000000E+08	 8.92439410E-01	-1.09851376E+01
8.15000000E+08	 8.91815576E-01	-1.10040832E+01
8.20000000E+08	 8.91222269E-01	-1.10238707E+01
8.25000000E+08	 8.90511295E-01	-1.10424948E+01
8.30000000E+08	 8.89872614E-01	-1.10596724E+01
8.35000000E+08	 8.89257392E-01	-1.10758895E+01
8.40000000E+08	 8.88637628E-01	-1.10954150E+01
8.45000000E+08	 8.88088697E-01	-1.11136210E+01
8.50000000E+08	 8.87387025E-01	-1.11298780E+01
8.55000000E+08	 8.86840481E-01	-1.11495508E+01
8.60000000E+08	 8.86240462E-01	-1.11653151E+01
8.65000000E+08	 8.85519979E-01	-1.11805062E+01
8.70000000E+08	 8.84964957E-01	-1.11948635E+01
8.75000000E+08	 8.84356236E-01	-1.12151892E+01
8.80000000E+08	 8.83849850E-01	-1.12269140E+01
8.85000000E+08	 8.83166358E-01	-1.12375473E+01
8.90000000E+08	 8.82610315E-01	-1.12534177E+01
8.95000000E+08	 8.81922760E-01	-1.12673590E+01
9.00000000E+08	 8.81361640E-01	-1.12770967E+01
9.05000000E+08	 8.80717170E-01	-1.12983407E+01
9.10000000E+08	 8.80155580E-01	-1.13041482E+01
9.15000000E+08	 8.79597315E-01	-1.13212108E+01
9.20000000E+08	 8.79005293E-01	-1.13347310E+01
9.25000000E+08	 8.78392326E-01	-1.13509224E+01
9.30000000E+08	 8.77835930E-01	-1.13642496E+01
9.35000000E+08	 8.77393699E-01	-1.13772285E+01
9.40000000E+08	 8.76733145E-01	-1.13832022E+01
9.45000000E+08	 8.76111551E-01	-1.13922555E+01
9.50000000E+08	 8.75510646E-01	-1.13995030E+01
9.55000000E+08	 8.74921132E-01	-1.14110682E+01
9.60000000E+08	 8.74521078E-01	-1.14231091E+01
9.65000000E+08	 8.73799524E-01	-1.14266020E+01
9.70000000E+08	 8.73314003E-01	-1.14384024E+01
9.75000000E+08	 8.72697102E-01	-1.14492303E+01
9.80000000E+08	 8.72329763E-01	-1.14584411E+01
9.85000000E+08	 8.71785676E-01	-1.14707152E+01
9.90000000E+08	 8.71181019E-01	-1.14759587E+01
9.95000000E+08	 8.70666137E-01	-1.14852413E+01
1.00000000E+09	 8.70164231E-01	-1.14983125E+01
1.00500000E+09	 8.69654835E-01	-1.15039602E+01
1.01000000E+09	 8.69057596E-01	-1.15085833E+01
1.01500000E+09	 8.68655762E-01	-1.15200476E+01
1.02000000E+09	 8.68156221E-01	-1.15262570E+01
1.02500000E+09	 8.67546759E-01	-1.15247430E+01
1.03000000E+09	 8.67031634E-01	-1.15415179E+01
1.03500000E+09	 8.66540180E-01	-1.15420755E+01
1.04000000E+09	 8.66031365E-01	-1.15524529E+01
1.04500000E+09	 8.65424390E-01	-1.15501759E+01
1.05000000E+09	 8.65001033E-01	-1.15613457E+01
1.05500000E+09	 8.64395935E-01	-1.15589576E+01
1.06000000E+09	 8.63918579E-01	-1.15708703E+01
1.06500000E+09	 8.63403277E-01	-1.15721978E+01
1.07000000E+09	 8.62878520E-01	-1.15788392E+01
1.07500000E+09	 8.62562755E-01	-1.15840687E+01
1.08000000E+09	 8.61921018E-01	-1.15850736E+01
1.08500000E+09	 8.61368488E-01	-1.15884331E+01
1.09000000E+09	 8.60881158E-01	-1.15948582E+01
1.09500000E+09	 8.60465507E-01	-1.15953420E+01
1.10000000E+09	 8.59865855E-01	-1.15961823E+01
1.10500000E+09	 8.59465897E-01	-1.16026858E+01
1.11000000E+09	 8.58978880E-01	-1.16003797E+01
1.11500000E+09	 8.58401882E-01	-1.16085609E+01
1.12000000E+09	 8.57988282E-01	-1.16090733E+01
1.12500000E+09	 8.57424191E-01	-1.16107692E+01
1.13000000E+09	 8.56956626E-01	-1.16139473E+01
1.13500000E+09	 8.56420060E-01	-1.16123306E+01
1.14000000E+09	 8.56084360E-01	-1.16144562E+01
1.14500000E+09	 8.55562789E-01	-1.16094288E+01
1.15000000E+09	 8.55083418E-01	-1.16101603E+01
1.15500000E+09	 8.54541764E-01	-1.16074796E+01
1.16000000E+09	 8.54089737E-01	-1.16069646E+01
1.16500000E+09	 8.53575030E-01	-1.16060868E+01
1.17000000E+09	 8.53132608E-01	-1.16058862E+01
1.17500000E+09	 8.52598433E-01	-1.16077833E+01
1.18000000E+09	 8.52138587E-01	-1.16020206E+01
1.18500000E+09	 8.51576158E-01	-1.16058560E+01
1.19000000E+09	 8.51192362E-01	-1.16038491E+01
1.19500000E+09	 8.50704420E-01	-1.16068905E+01
1.20000000E+09	 8.50231098E-01	-1.16017635E+01
1.20500000E+09	 8.49594501E-01	-1.16017184E+01
1.21000000E+09	 8.49199836E-01	-1.16009469E+01
1.21500000E+09	 8.48838392E-01	-1.15966049E+01
1.22000000E+09	 8.48133019E-01	-1.15939652E+01
1.22500000E+09	 8.47810725E-01	-1.15889422E+01
1.23000000E+09	 8.47344064E-01	-1.15840563E+01
1.23500000E+09	 8.46783233E-01	-1.15744861E+01
1.24000000E+09	 8.46277061E-01	-1.15843301E+01
1.24500000E+09	 8.45845462E-01	-1.15771596E+01
1.25000000E+09	 8.45369179E-01	-1.15758039E+01
1.25500000E+09	 8.44946484E-01	-1.15756471E+01
1.26000000E+09	 8.44267219E-01	-1.15642095E+01
1.26500000E+09	 8.43865307E-01	-1.15489795E+01
1.27000000E+09	 8.43453752E-01	-1.15509420E+01
1.27500000E+09	 8.43067019E-01	-1.15472008E+01
1.28000000E+09	 8.42455734E-01	-1.15483425E+01
1.28500000E+09	 8.41838229E-01	-1.15332416E+01
1.29000000E+09	 8.41343170E-01	-1.15292169E+01
1.29500000E+09	 8.40937443E-01	-1.15328759E+01
1.30000000E+09	 8.40408385E-01	-1.15322877E+01
1.30500000E+09	 8.39769646E-01	-1.15191646E+01
1.31000000E+09	 8.39456066E-01	-1.15198301E+01
1.31500000E+09	 8.38896351E-01	-1.15066940E+01
1.32000000E+09	 8.38410039E-01	-1.15037580E+01
1.32500000E+09	 8.37971774E-01	-1.14961569E+01
1.33000000E+09	 8.37509240E-01	-1.15041530E+01
1.33500000E+09	 8.36933918E-01	-1.14893302E+01
1.34000000E+09	 8.36329667E-01	-1.14840378E+01
1.34500000E+09	 8.35832543E-01	-1.14813448E+01
1.35000000E+09	 8.35390521E-01	-1.14730742E+01
1.35500000E+09	 8.34930295E-01	-1.14737934E+01
1.36000000E+09	 8.34418096E-01	-1.14640706E+01
1.36500000E+09	 8.33813205E-01	-1.14569297E+01
1.37000000E+09	 8.33504985E-01	-1.14555214E+01
1.37500000E+09	 8.32886950E-01	-1.14541558E+01
1.38000000E+09	 8.32447593E-01	-1.14550584E+01
1.38500000E+09	 8.31881294E-01	-1.14434993E+01
1.39000000E+09	 8.31276723E-01	-1.14312959E+01
1.39500000E+09	 8.30740825E-01	-1.14312281E+01
1.40000000E+09	 8.30334977E-01	-1.14328666E+01
1.40500000E+09	 8.29817846E-01	-1.14294954E+01
1.41000000E+09	 8.29324816E-01	-1.14171036E+01
1.41500000E+09	 8.28764032E-01	-1.14175599E+01
1.42000000E+09	 8.28206012E-01	-1.14120265E+01
1.42500000E+09	 8.27794259E-01	-1.14108233E+01
1.43000000E+09	 8.27241191E-01	-1.14041976E+01
1.43500000E+09	 8.26584994E-01	-1.13937117E+01
1.44000000E+09	 8.26112490E-01	-1.13925953E+01
1.44500000E+09	 8.25539041E-01	-1.13934084E+01
1.45000000E+09	 8.25117666E-01	-1.13860289E+01
1.45500000E+09	 8.24560799E-01	-1.13715638E+01
1.46000000E+09	 8.24064638E-01	-1.13708808E+01
1.46500000E+09	 8.23471474E-01	-1.13688152E+01
1.47000000E+09	 8.23040275E-01	-1.13594779E+01
1.47500000E+09	 8.22369850E-01	-1.13635128E+01
1.48000000E+09	 8.22022412E-01	-1.13579647E+01
1.48500000E+09	 8.21488420E-01	-1.13528127E+01
1.49000000E+09	 8.20905171E-01	-1.13413167E+01
1.49500000E+09	 8.20473822E-01	-1.13436074E+01
1.50000000E+09	 8.19949779E-01	-1.13423784E+01
1.50500000E+09	 8.19371475E-01	-1.13404230E+01
1.51000000E+09	 8.18791948E-01	-1.13334078E+01
1.51500000E+09	 8.18491440E-01	-1.13328564E+01
1.52000000E+09	 8.17768296E-01	-1.13316513E+01
1.52500000E+09	 8.17269968E-01	-1.13222693E+01
1.53000000E+09	 8.16793484E-01	-1.13278075E+01
1.53500000E+09	 8.16281486E-01	-1.13248645E+01
1.54000000E+09	 8.15604066E-01	-1.13191758E+01
1.54500000E+09	 8.15313207E-01	-1.13228073E+01
1.55000000E+09	 8.14726398E-01	-1.13172667E+01
1.55500000E+09	 8.14178972E-01	-1.13100072E+01
1.56000000E+09	 8.13718446E-01	-1.13063762E+01
1.56500000E+09	 8.13376395E-01	-1.13074248E+01
1.57000000E+09	 8.12595849E-01	-1.13038585E+01
1.57500000E+09	 8.12073868E-01	-1.13074498E+01
1.58000000E+09	 8.11616886E-01	-1.13006167E+01
1.58500000E+09	 8.11031438E-01	-1.13080003E+01
1.59000000E+09	 8.10540889E-01	-1.12964365E+01
1.59500000E+09	 8.09873439E-01	-1.12949851E+01
1.60000000E+09	 8.09383610E-01	-1.12976893E+01
1.60500000E+09	 8.08811183E-01	-1.13070382E+01
1.61000000E+09	 8.08396760E-01	-1.13026843E+01
1.61500000E+09	 8.07910735E-01	-1.12929769E+01
1.62000000E+09	 8.07365229E-01	-1.12924755E+01
1.62500000E+09	 8.06826655E-01	-1.12878528E+01
1.63000000E+09	 8.06379458E-01	-1.12940734E+01
1.63500000E+09	 8.05709709E-01	-1.12841103E+01
1.64000000E+09	 8.05348958E-01	-1.12897297E+01
1.64500000E+09	 8.04698275E-01	-1.12932790E+01
1.65000000E+09	 8.04184261E-01	-1.12883309E+01
1.65500000E+09	 8.03807918E-01	-1.12827463E+01
1.66000000E+09	 8.03332875E-01	-1.12929487E+01
1.66500000E+09	 8.02777421E-01	-1.13000595E+01
1.67000000E+09	 8.02180080E-01	-1.12950641E+01
1.67500000E+09	 8.01758369E-01	-1.13022395E+01
1.68000000E+09	 8.01212954E-01	-1.12931881E+01
1.68500000E+09	 8.00686555E-01	-1.12944395E+01
1.69000000E+09	 8.00260527E-01	-1.13012996E+01
1.69500000E+09	 7.99723950E-01	-1.12976278E+01
1.70000000E+09	 7.99229145E-01	-1.12914654E+01
1.70500000E+09	 7.98819619E-01	-1.12895419E+01
1.71000000E+09	 7.98182594E-01	-1.12967545E+01
1.71500000E+09	 7.97595774E-01	-1.12941119E+01
1.72000000E+09	 7.97275791E-01	-1.12967294E+01
1.72500000E+09	 7.96710674E-01	-1.13072904E+01
1.73000000E+09	 7.96346573E-01	-1.12947313E+01
1.73500000E+09	 7.95713162E-01	-1.13011451E+01
1.74000000E+09	 7.95292622E-01	-1.13080076E+01
1.74500000E+09	 7.94698715E-01	-1.13045796E+01
1.75000000E+09	 7.94197398E-01	-1.13094046E+01
1.75500000E+09	 7.93557620E-01	-1.13125043E+01
1.76000000E+09	 7.92991817E-01	-1.13252600E+01
1.76500000E+09	 7.92505119E-01	-1.13280754E+01
1.77000000E+09	 7.91860040E-01	-1.13323638E+01
1.77500000E+09	 7.91392258E-01	-1.13441951E+01
1.78000000E+09	 7.90970656E-01	-1.13541745E+01
1.78500000E+09	 7.90430348E-01	-1.13522622E+01
1.79000000E+09	 7.90000309E-01	-1.13528322E+01
1.79500000E+09	 7.89500598E-01	-1.13616024E+01
1.80000000E+09	 7.89061633E-01	-1.13644171E+01
1.80500000E+09	 7.88485701E-01	-1.13639662E+01
1.81000000E+09	 7.88049963E-01	-1.13768180E+01
1.81500000E+09	 7.87483234E-01	-1.13786554E+01
1.82000000E+09	 7.87057110E-01	-1.13996603E+01
1.82500000E+09	 7.86617575E-01	-1.14020881E+01
1.83000000E+09	 7.86213203E-01	-1.14180146E+01
1.83500000E+09	 7.85649780E-01	-1.14203138E+01
1.84000000E+09	 7.85175493E-01	-1.14249627E+01
1.84500000E+09	 7.84590675E-01	-1.14316755E+01
1.85000000E+09	 7.84298595E-01	-1.14411398E+01
1.85500000E+09	 7.83823347E-01	-1.14527087E+01
1.86000000E+09	 7.83581454E-01	-1.14660827E+01
1.86500000E+09	 7.82630683E-01	-1.14463635E+01
1.87000000E+09	 7.82291774E-01	-1.14710374E+01
1.87500000E+09	 7.82040463E-01	-1.14822776E+01
1.88000000E+09	 7.81397714E-01	-1.14829391E+01
1.88500000E+09	 7.80869004E-01	-1.14995638E+01
1.89000000E+09	 7.80470688E-01	-1.15123682E+01
1.89500000E+09	 7.80067382E-01	-1.15246429E+01
1.90000000E+09	 7.79526649E-01	-1.15296608E+01
1.90500000E+09	 7.78869216E-01	-1.15436148E+01
1.91000000E+09	 7.78553975E-01	-1.15630146E+01
1.91500000E+09	 7.77935241E-01	-1.15616834E+01
1.92000000E+09	 7.77547199E-01	-1.15686296E+01
1.92500000E+09	 7.77121866E-01	-1.15782940E+01
1.93000000E+09	 7.76705224E-01	-1.15910320E+01
1.93500000E+09	 7.76291100E-01	-1.16021734E+01
1.94000000E+09	 7.75868835E-01	-1.16202218E+01
1.94500000E+09	 7.75390199E-01	-1.16387649E+01
1.95000000E+09	 7.75040782E-01	-1.16436440E+01
1.95500000E+09	 7.74536426E-01	-1.16584138E+01
1.96000000E+09	 7.74038673E-01	-1.16820998E+01
1.96500000E+09	 7.73667636E-01	-1.16890217E+01
1.97000000E+09	 7.73159605E-01	-1.17044470E+01
1.97500000E+09	 7.72802365E-01	-1.17364007E+01
1.98000000E+09	 7.72450841E-01	-1.17465345E+01
1.98500000E+09	 7.71929094E-01	-1.17701057E+01
1.99000000E+09	 7.71347630E-01	-1.17884866E+01
1.99500000E+09	 7.71055368E-01	-1.18035346E+01
2.00000000E+09	 7.70606613E-01	-1.18202636E+01
2.00500000E+09	 7.70217333E-01	-1.18381077E+01
2.01000000E+09	 7.69696992E-01	-1.18631624E+01
2.01500000E+09	 7.69366656E-01	-1.18727101E+01
2.02000000E+09	 7.68912433E-01	-1.19045066E+01
2.02500000E+09	 7.68538306E-01	-1.19253475E+01
2.03000000E+09	 7.68002688E-01	-1.19435736E+01
2.03500000E+09	 7.67665617E-01	-1.19643601E+01
2.04000000E+09	 7.67358223E-01	-1.19909013E+01
2.04500000E+09	 7.66908672E-01	-1.20135360E+01
2.05000000E+09	 7.66461757E-01	-1.20419911E+01
2.05500000E+09	 7.66181388E-01	-1.20652540E+01
2.06000000E+09	 7.65707058E-01	-1.20844243E+01
2.06500000E+09	 7.65378407E-01	-1.21119655E+01
2.07000000E+09	 7.64994855E-01	-1.21437352E+01
2.07500000E+09	 7.64593996E-01	-1.21661611E+01
2.08000000E+09	 7.64233141E-01	-1.21965834E+01
2.08500000E+09	 7.63804691E-01	-1.22255831E+01
2.09000000E+09	 7.63507746E-01	-1.22579756E+01
2.09500000E+09	 7.63168017E-01	-1.22807102E+01
2.10000000E+09	 7.62869267E-01	-1.23108967E+01
2.10500000E+09	 7.62585151E-01	-1.23286967E+01
2.11000000E+09	 7.62263150E-01	-1.23647059E+01
2.11500000E+09	 7.61950466E-01	-1.23952318E+01
2.12000000E+09	 7.61678051E-01	-1.24156257E+01
2.12500000E+09	 7.61290240E-01	-1.24449693E+01
2.13000000E+09	 7.60935785E-01	-1.24776328E+01
2.13500000E+09	 7.60741866E-01	-1.25067231E+01
2.14000000E+09	 7.60471593E-01	-1.25355480E+01
2.14500000E+09	 7.60219695E-01	-1.25665595E+01
2.15000000E+09	 7.59962510E-01	-1.26082451E+01
2.15500000E+09	 7.59699675E-01	-1.26449015E+01
2.16000000E+09	 7.59497525E-01	-1.26786514E+01
2.16500000E+09	 7.59197288E-01	-1.27109059E+01
2.17000000E+09	 7.58950602E-01	-1.27405135E+01
2.17500000E+09	 7.58720900E-01	-1.27738584E+01
2.18000000E+09	 7.58540416E-01	-1.28124705E+01
2.18500000E+09	 7.58257557E-01	-1.28497332E+01
2.19000000E+09	 7.58174821E-01	-1.29028735E+01
2.19500000E+09	 7.57732085E-01	-1.29186918E+01
2.20000000E+09	 7.57615145E-01	-1.29693562E+01
2.20500000E+09	 7.57378836E-01	-1.30023038E+01
2.21000000E+09	 7.57213315E-01	-1.30377830E+01
2.21500000E+09	 7.57037320E-01	-1.30821662E+01
2.22000000E+09	 7.56852410E-01	-1.31148476E+01
2.22500000E+09	 7.56698219E-01	-1.31534736E+01
2.23000000E+09	 7.56618203E-01	-1.32020707E+01
2.23500000E+09	 7.56337776E-01	-1.32406810E+01
2.24000000E+09	 7.56189595E-01	-1.32760378E+01
2.24500000E+09	 7.56043972E-01	-1.33174377E+01
2.25000000E+09	 7.55908640E-01	-1.33534491E+01
2.25500000E+09	 7.55933472E-01	-1.34022498E+01
2.26000000E+09	 7.55789877E-01	-1.34451082E+01
2.26500000E+09	 7.55763785E-01	-1.34872681E+01
2.27000000E+09	 7.55564148E-01	-1.35282559E+01
2.27500000E+09	 7.55534552E-01	-1.35627000E+01
2.28000000E+09	 7.55517924E-01	-1.36047575E+01
2.28500000E+09	 7.55447141E-01	-1.36492312E+01
2.29000000E+09	 7.55475155E-01	-1.36844400E+01
2.29500000E+09	 7.55274022E-01	-1.37212502E+01
2.30000000E+09	 7.55292257E-01	-1.37665991E+01
2.30500000E+09	 7.55121791E-01	-1.38008791E+01
2.31000000E+09	 7.55137075E-01	-1.38419904E+01
2.31500000E+09	 7.55014356E-01	-1.38798146E+01
2.32000000E+09	 7.55016658E-01	-1.39151834E+01
2.32500000E+09	 7.55008999E-01	-1.39695405E+01
2.33000000E+09	 7.55012148E-01	-1.40086334E+01
2.33500000E+09	 7.54978932E-01	-1.40536395E+01
2.34000000E+09	 7.54996134E-01	-1.40941642E+01
2.34500000E+09	 7.54944012E-01	-1.41326230E+01
2.35000000E+09	 7.54936645E-01	-1.41786444E+01
2.35500000E+09	 7.54933505E-01	-1.42172841E+01
2.36000000E+09	 7.54933775E-01	-1.42628140E+01
2.36500000E+09	 7.55029026E-01	-1.43089554E+01
2.37000000E+09	 7.55018750E-01	-1.43474809E+01
2.37500000E+09	 7.55081659E-01	-1.44005618E+01
2.38000000E+09	 7.55149870E-01	-1.44473164E+01
2.38500000E+09	 7.55286918E-01	-1.44910018E+01
2.39000000E+09	 7.55363875E-01	-1.45388667E+01
2.39500000E+09	 7.55410589E-01	-1.45811270E+01
2.40000000E+09	 7.55573650E-01	-1.46222521E+01
2.40500000E+09	 7.55721397E-01	-1.46726829E+01
2.41000000E+09	 7.55956155E-01	-1.47066301E+01
2.41500000E+09	 7.56007551E-01	-1.47494124E+01
2.42000000E+09	 7.56078690E-01	-1.47925658E+01
2.42500000E+09	 7.56437243E-01	-1.48446287E+01
2.43000000E+09	 7.56342788E-01	-1.48753642E+01
2.43500000E+09	 7.56639515E-01	-1.49070109E+01
2.44000000E+09	 7.56833315E-01	-1.49598892E+01
2.44500000E+09	 7.57048987E-01	-1.50051880E+01
2.45000000E+09	 7.57246488E-01	-1.50505542E+01
2.45500000E+09	 7.57439949E-01	-1.50893195E+01
2.46000000E+09	 7.57686421E-01	-1.51256935E+01
2.46500000E+09	 7.57966414E-01	-1.51752972E+01
2.47000000E+09	 7.58168108E-01	-1.52186825E+01
2.47500000E+09	 7.58431034E-01	-1.52518827E+01
2.48000000E+09	 7.58777330E-01	-1.52902761E+01
2.48500000E+09	 7.58942633E-01	-1.53305021E+01
2.49000000E+09	 7.59356383E-01	-1.53702793E+01
2.49500000E+09	 7.59437320E-01	-1.54101925E+01
2.50000000E+09	 7.60000332E-01	-1.54555762E+01
2.50500000E+09	 7.60130392E-01	-1.54828122E+01
2.51000000E+09	 7.60461367E-01	-1.55212163E+01
2.51500000E+09	 7.60810662E-01	-1.55592051E+01
2.52000000E+09	 7.61008304E-01	-1.55870973E+01
2.52500000E+09	 7.61386467E-01	-1.56281683E+01
2.53000000E+09	 7.61897558E-01	-1.56634896E+01
2.53500000E+09	 7.62052098E-01	-1.56976745E+01
2.54000000E+09	 7.62338922E-01	-1.57191493E+01
2.54500000E+09	 7.62657335E-01	-1.57641731E+01
2.55000000E+09	 7.62930775E-01	-1.57997334E+01
2.55500000E+09	 7.63148220E-01	-1.58241047E+01
2.56000000E+09	 7.63458960E-01	-1.58670835E+01
2.56500000E+09	 7.63734877E-01	-1.58936147E+01
2.57000000E+09	 7.64038561E-01	-1.59315509E+01
2.57500000E+09	 7.64357706E-01	-1.59667832E+01
2.58000000E+09	 7.64756929E-01	-1.60063441E+01
2.58500000E+09	 7.65081446E-01	-1.60345639E+01
2.59000000E+09	 7.65425912E-01	-1.60688214E+01
2.59500000E+09	 7.65869257E-01	-1.61054547E+01
2.60000000E+09	 7.66244535E-01	-1.61374711E+01
2.60500000E+09	 7.66747862E-01	-1.61755440E+01
2.61000000E+09	 7.67089027E-01	-1.62137996E+01
2.61500000E+09	 7.67507058E-01	-1.62372529E+01
2.62000000E+09	 7.67963776E-01	-1.62725409E+01
2.62500000E+09	 7.68368998E-01	-1.62906315E+01
2.63000000E+09	 7.68779724E-01	-1.63265954E+01
2.63500000E+09	 7.69266169E-01	-1.63618687E+01
2.64000000E+09	 7.69682450E-01	-1.63775462E+01
2.64500000E+09	 7.70115604E-01	-1.64165453E+01
2.65000000E+09	 7.70581690E-01	-1.64315465E+01
2.65500000E+09	 7.71062092E-01	-1.64625157E+01
2.66000000E+09	 7.71419119E-01	-1.64763338E+01
2.66500000E+09	 7.71854833E-01	-1.65027702E+01
2.67000000E+09	 7.72293061E-01	-1.65170896E+01
2.67500000E+09	 7.72759630E-01	-1.65541826E+01
2.68000000E+09	 7.73022901E-01	-1.65661919E+01
2.68500000E+09	 7.73483599E-01	-1.65873071E+01
2.69000000E+09	 7.73946626E-01	-1.66105605E+01
2.69500000E+09	 7.74320103E-01	-1.66400174E+01
2.70000000E+09	 7.74750886E-01	-1.66695178E+01
2.70500000E+09	 7.75119136E-01	-1.66885650E+01
2.71000000E+09	 7.75653886E-01	-1.67152013E+01
2.71500000E+09	 7.76143011E-01	-1.67402373E+01
2.72000000E+09	 7.76709140E-01	-1.67722247E+01
2.72500000E+09	 7.77211406E-01	-1.67899680E+01
2.73000000E+09	 7.77622564E-01	-1.68050423E+01
2.73500000E+09	 7.78185665E-01	-1.68263269E+01
2.74000000E+09	 7.78682846E-01	-1.68688275E+01
2.74500000E+09	 7.79205675E-01	-1.68777413E+01
2.75000000E+09	 7.79764199E-01	-1.69012148E+01
2.75500000E+09	 7.80509943E-01	-1.69243767E+01
2.76000000E+09	 7.81008579E-01	-1.69282314E+01
2.76500000E+09	 7.81544804E-01	-1.69572853E+01
2.77000000E+09	 7.81962902E-01	-1.69657067E+01
2.77500000E+09	 7.82737440E-01	-1.69823730E+01
2.78000000E+09	 7.83218363E-01	-1.69984942E+01
2.78500000E+09	 7.83676858E-01	-1.70024171E+01
2.79000000E+09	 7.84418207E-01	-1.70316449E+01
2.79500000E+09	 7.85032705E-01	-1.70312214E+01
2.80000000E+09	 7.85490424E-01	-1.70332723E+01
2.80500000E+09	 7.85940310E-01	-1.70286194E+01
2.81000000E+09	 7.86611661E-01	-1.70346406E+01
2.81500000E+09	 7.86925240E-01	-1.70237119E+01
2.82000000E+09	 7.87433278E-01	-1.70387504E+01
2.82500000E+09	 7.88050189E-01	-1.70387182E+01
2.83000000E+09	 7.88497137E-01	-1.70404916E+01
2.83500000E+09	 7.88935710E-01	-1.70448183E+01
2.84000000E+09	 7.89327035E-01	-1.70342686E+01
2.84500000E+09	 7.89795362E-01	-1.70334605E+01
2.85000000E+09	 7.90361772E-01	-1.70255868E+01
2.85500000E+09	 7.90829910E-01	-1.70432796E+01
2.86000000E+09	 7.91150328E-01	-1.70377131E+01
2.86500000E+09	 7.91586506E-01	-1.70425528E+01
2.87000000E+09	 7.92042503E-01	-1.70501958E+01
2.87500000E+09	 7.92648403E-01	-1.70543500E+01
2.88000000E+09	 7.93131656E-01	-1.70644341E+01
2.88500000E+09	 7.93678202E-01	-1.70638941E+01
2.89000000E+09	 7.94227510E-01	-1.70606051E+01
2.89500000E+09	 7.94903680E-01	-1.70582620E+01
2.90000000E+09	 7.95393027E-01	-1.70530171E+01
2.90500000E+09	 7.96005562E-01	-1.70458986E+01
2.91000000E+09	 7.96508141E-01	-1.70226312E+01
2.91500000E+09	 7.97046385E-01	-1.70103571E+01
2.92000000E+09	 7.97518267E-01	-1.69960757E+01
2.92500000E+09	 7.97851474E-01	-1.69777843E+01
2.93000000E+09	 7.98225321E-01	-1.69568923E+01
2.93500000E+09	 7.98670283E-01	-1.69425303E+01
2.94000000E+09	 7.98916120E-01	-1.69250480E+01
2.94500000E+09	 7.99175532E-01	-1.69037286E+01
2.95000000E+09	 7.99502569E-01	-1.68929819E+01
2.95500000E+09	 7.99718507E-01	-1.68809672E+01
2.96000000E+09	 7.99908903E-01	-1.68743196E+01
2.96500000E+09	 8.00211753E-01	-1.68523860E+01
2.97000000E+09	 8.00478108E-01	-1.68563821E+01
2.97500000E+09	 8.00705666E-01	-1.68441876E+01
2.98000000E+09	 8.00922447E-01	-1.68320664E+01
2.98500000E+09	 8.01237073E-01	-1.68252157E+01
2.99000000E+09	 8.01588903E-01	-1.68199720E+01
2.99500000E+09	 8.01923409E-01	-1.68121794E+01
3.00000000E+09	 8.02176787E-01	-1.68155332E+01
3.00500000E+09	 8.02717384E-01	-1.67330812E+01
3.01000000E+09	 8.02871518E-01	-1.67352299E+01
3.01500000E+09	 8.03140303E-01	-1.67271484E+01
3.02000000E+09	 8.03258972E-01	-1.67294023E+01
3.02500000E+09	 8.03712562E-01	-1.67015360E+01
3.03000000E+09	 8.04045649E-01	-1.67218336E+01
3.03500000E+09	 8.04194237E-01	-1.67205509E+01
3.04000000E+09	 8.04935314E-01	-1.67011305E+01
3.04500000E+09	 8.05530409E-01	-1.67048369E+01
3.05000000E+09	 8.06126812E-01	-1.67043428E+01
3.05500000E+09	 8.06183999E-01	-1.66982324E+01
3.06000000E+09	 8.06983866E-01	-1.66475472E+01
3.06500000E+09	 8.07724271E-01	-1.66338999E+01
3.07000000E+09	 8.08063306E-01	-1.65935405E+01
3.07500000E+09	 8.08589123E-01	-1.65675629E+01
3.08000000E+09	 8.09496600E-01	-1.65249621E+01
3.08500000E+09	 8.09614724E-01	-1.64664003E+01
3.09000000E+09	 8.10274540E-01	-1.64285276E+01
3.09500000E+09	 8.10458792E-01	-1.63727220E+01
3.10000000E+09	 8.10569793E-01	-1.63219097E+01
3.10500000E+09	 8.10896794E-01	-1.62598567E+01
3.11000000E+09	 8.10959728E-01	-1.62265734E+01
3.11500000E+09	 8.10829004E-01	-1.61762814E+01
3.12000000E+09	 8.10914353E-01	-1.61223108E+01
3.12500000E+09	 8.10737392E-01	-1.60970438E+01
3.13000000E+09	 8.10709205E-01	-1.60461575E+01
3.13500000E+09	 8.10663835E-01	-1.60009135E+01
3.14000000E+09	 8.10445409E-01	-1.59728430E+01
3.14500000E+09	 8.10277186E-01	-1.59491534E+01
3.15000000E+09	 8.10324816E-01	-1.59068056E+01
3.15500000E+09	 8.10188390E-01	-1.58760903E+01
3.16000000E+09	 8.10152720E-01	-1.58616139E+01
3.16500000E+09	 8.10203732E-01	-1.58557769E+01
3.17000000E+09	 8.10151856E-01	-1.58255769E+01
3.17500000E+09	 8.10158755E-01	-1.58089470E+01
3.18000000E+09	 8.10296622E-01	-1.58085464E+01
3.18500000E+09	 8.10393900E-01	-1.57868663E+01
3.19000000E+09	 8.10710258E-01	-1.57618536E+01
3.19500000E+09	 8.10964260E-01	-1.57458115E+01
3.20000000E+09	 8.11300684E-01	-1.57267979E+01
3.20500000E+09	 8.11626840E-01	-1.56793593E+01
3.21000000E+09	 8.12068431E-01	-1.56433099E+01
3.21500000E+09	 8.12331117E-01	-1.55977376E+01
3.22000000E+09	 8.12745596E-01	-1.55512520E+01
3.22500000E+09	 8.12748930E-01	-1.54991676E+01
3.23000000E+09	 8.12644618E-01	-1.54298877E+01
3.23500000E+09	 8.12593234E-01	-1.53830050E+01
3.24000000E+09	 8.12363467E-01	-1.53315621E+01
3.24500000E+09	 8.12353384E-01	-1.52951382E+01
3.25000000E+09	 8.12094808E-01	-1.52404978E+01
3.25500000E+09	 8.12051318E-01	-1.51952101E+01
3.26000000E+09	 8.12131574E-01	-1.51554092E+01
3.26500000E+09	 8.11651101E-01	-1.51043652E+01
3.27000000E+09	 8.11677190E-01	-1.50817981E+01
3.27500000E+09	 8.11219927E-01	-1.50414506E+01
3.28000000E+09	 8.11151548E-01	-1.49968971E+01
3.28500000E+09	 8.10904976E-01	-1.49874392E+01
3.29000000E+09	 8.10749099E-01	-1.49336153E+01
3.29500000E+09	 8.10357086E-01	-1.49012904E+01
3.30000000E+09	 8.10224483E-01	-1.48663293E+01
3.30500000E+09	 8.10146251E-01	-1.48356470E+01
3.31000000E+09	 8.09756573E-01	-1.48020436E+01
3.31500000E+09	 8.09837134E-01	-1.47957302E+01
3.32000000E+09	 8.09715984E-01	-1.47627122E+01
3.32500000E+09	 8.09563015E-01	-1.47424310E+01
3.33000000E+09	 8.09271718E-01	-1.47009319E+01
3.33500000E+09	 8.09135468E-01	-1.46916696E+01
3.34000000E+09	 8.09001268E-01	-1.46433727E+01
3.34500000E+09	 8.09025478E-01	-1.46266638E+01
3.35000000E+09	 8.08930027E-01	-1.45903594E+01
3.35500000E+09	 8.08771194E-01	-1.45474468E+01
3.36000000E+09	 8.08613339E-01	-1.45271246E+01
3.36500000E+09	 8.08356025E-01	-1.44931337E+01
3.37000000E+09	 8.08503330E-01	-1.44689565E+01
3.37500000E+09	 8.08367957E-01	-1.44355061E+01
3.38000000E+09	 8.08275931E-01	-1.43972693E+01
3.38500000E+09	 8.08192222E-01	-1.43562581E+01
3.39000000E+09	 8.08261337E-01	-1.43301686E+01
3.39500000E+09	 8.07748804E-01	-1.42904015E+01
3.40000000E+09	 8.07814269E-01	-1.42600371E+01
3.40500000E+09	 8.07638519E-01	-1.42097998E+01
3.41000000E+09	 8.07645801E-01	-1.41532020E+01
3.41500000E+09	 8.07269396E-01	-1.41089688E+01
3.42000000E+09	 8.07372643E-01	-1.40708713E+01
3.42500000E+09	 8.06937555E-01	-1.40310911E+01
3.43000000E+09	 8.06709329E-01	-1.39852549E+01
3.43500000E+09	 8.06339075E-01	-1.39489340E+01
3.44000000E+09	 8.06309330E-01	-1.38982698E+01
3.44500000E+09	 8.05848784E-01	-1.38518087E+01
3.45000000E+09	 8.05536961E-01	-1.38109532E+01
3.45500000E+09	 8.05123603E-01	-1.37613466E+01
3.46000000E+09	 8.04748321E-01	-1.37156778E+01
3.46500000E+09	 8.04257317E-01	-1.36675578E+01
3.47000000E+09	 8.03873757E-01	-1.36326727E+01
3.47500000E+09	 8.03360732E-01	-1.35877195E+01
3.48000000E+09	 8.02780206E-01	-1.35581889E+01
3.48500000E+09	 8.02085706E-01	-1.35179728E+01
3.49000000E+09	 8.01410330E-01	-1.34949987E+01
3.49500000E+09	 8.00964160E-01	-1.34696266E+01
3.50000000E+09	 8.00321654E-01	-1.34598861E+01
3.50500000E+09	 7.99881016E-01	-1.34265756E+01
3.51000000E+09	 7.99359869E-01	-1.34038280E+01
3.51500000E+09	 7.99005176E-01	-1.33997500E+01
3.52000000E+09	 7.98651918E-01	-1.33974021E+01
3.52500000E+09	 7.98343430E-01	-1.33715097E+01
3.53000000E+09	 7.97995530E-01	-1.33736826E+01
3.53500000E+09	 7.98239265E-01	-1.33692644E+01
3.54000000E+09	 7.97952790E-01	-1.33302494E+01
3.54500000E+09	 7.98018606E-01	-1.32955134E+01
3.55000000E+09	 7.98145782E-01	-1.32696789E+01
3.55500000E+09	 7.98245925E-01	-1.32105383E+01
3.56000000E+09	 7.98086262E-01	-1.31353892E+01
3.56500000E+09	 7.97885218E-01	-1.30747409E+01
3.57000000E+09	 7.97517195E-01	-1.29906620E+01
3.57500000E+09	 7.96798891E-01	-1.29009061E+01
3.58000000E+09	 7.96231065E-01	-1.28264287E+01
3.58500000E+09	 7.95267111E-01	-1.27318015E+01
3.59000000E+09	 7.93585557E-01	-1.26706000E+01
3.59500000E+09	 7.92387565E-01	-1.26665643E+01
3.60000000E+09	 7.90995493E-01	-1.26542323E+01
3.60500000E+09	 7.89842281E-01	-1.26319082E+01
3.61000000E+09	 7.88762444E-01	-1.26588333E+01
3.61500000E+09	 7.88076764E-01	-1.26810039E+01
3.62000000E+09	 7.87572332E-01	-1.27219008E+01
3.62500000E+09	 7.86946236E-01	-1.27303717E+01
3.63000000E+09	 7.86819501E-01	-1.27307922E+01
3.63500000E+09	 7.86688453E-01	-1.27597812E+01
3.64000000E+09	 7.86457640E-01	-1.27523042E+01
3.64500000E+09	 7.86405568E-01	-1.27361343E+01
3.65000000E+09	 7.86377354E-01	-1.26707157E+01
3.65500000E+09	 7.85977722E-01	-1.26724058E+01
3.66000000E+09	 7.85738379E-01	-1.26271209E+01
3.66500000E+09	 7.85037774E-01	-1.26225510E+01
3.67000000E+09	 7.84895881E-01	-1.25631315E+01
3.67500000E+09	 7.85096366E-01	-1.25343119E+01
3.68000000E+09	 7.84338344E-01	-1.25079440E+01
3.68500000E+09	 7.83786250E-01	-1.24724233E+01
3.69000000E+09	 7.83206416E-01	-1.24404666E+01
3.69500000E+09	 7.83066032E-01	-1.24071732E+01
3.70000000E+09	 7.82387222E-01	-1.23568415E+01
3.70500000E+09	 7.81797534E-01	-1.23163624E+01
3.71000000E+09	 7.81233273E-01	-1.22619572E+01
3.71500000E+09	 7.80551371E-01	-1.22040408E+01
3.72000000E+09	 7.79738613E-01	-1.21495134E+01
3.72500000E+09	 7.78860760E-01	-1.21036413E+01
3.73000000E+09	 7.77730630E-01	-1.20367449E+01
3.73500000E+09	 7.76438002E-01	-1.20031459E+01
3.74000000E+09	 7.74857652E-01	-1.19867569E+01
3.74500000E+09	 7.73572027E-01	-1.19887672E+01
3.75000000E+09	 7.72184773E-01	-1.20017693E+01
3.75500000E+09	 7.71005203E-01	-1.20495332E+01
3.76000000E+09	 7.69978739E-01	-1.20951556E+01
3.76500000E+09	 7.69278867E-01	-1.21733679E+01
3.77000000E+09	 7.68960637E-01	-1.22171957E+01
3.77500000E+09	 7.69118163E-01	-1.22512074E+01
3.78000000E+09	 7.69775753E-01	-1.23003652E+01
3.78500000E+09	 7.70018916E-01	-1.22702646E+01
3.79000000E+09	 7.69906161E-01	-1.22154612E+01
3.79500000E+09	 7.69744539E-01	-1.21668974E+01
3.80000000E+09	 7.68998093E-01	-1.20985495E+01
3.80500000E+09	 7.68559619E-01	-1.20630380E+01
3.81000000E+09	 7.67563379E-01	-1.20315112E+01
3.81500000E+09	 7.66814370E-01	-1.20125625E+01
3.82000000E+09	 7.65791808E-01	-1.19720469E+01
3.82500000E+09	 7.64940904E-01	-1.19317524E+01
3.83000000E+09	 7.63622333E-01	-1.19246563E+01
3.83500000E+09	 7.61806265E-01	-1.19847609E+01
3.84000000E+09	 7.60979598E-01	-1.19934583E+01
3.84500000E+09	 7.60418993E-01	-1.20003233E+01
3.85000000E+09	 7.59721149E-01	-1.19974627E+01
3.85500000E+09	 7.58744228E-01	-1.19954818E+01
3.86000000E+09	 7.58222631E-01	-1.19941811E+01
3.86500000E+09	 7.57646850E-01	-1.20087775E+01
3.87000000E+09	 7.56719933E-01	-1.20264677E+01
3.87500000E+09	 7.56052357E-01	-1.20201967E+01
3.88000000E+09	 7.55187588E-01	-1.20133699E+01
3.88500000E+09	 7.54477648E-01	-1.20287268E+01
3.89000000E+09	 7.53704643E-01	-1.20411057E+01
3.89500000E+09	 7.52795245E-01	-1.20538588E+01
3.90000000E+09	 7.52047227E-01	-1.20580936E+01
3.90500000E+09	 7.51512722E-01	-1.20673906E+01
3.91000000E+09	 7.50428551E-01	-1.20812035E+01
3.91500000E+09	 7.49641768E-01	-1.20998700E+01
3.92000000E+09	 7.49039087E-01	-1.21205313E+01
3.92500000E+09	 7.48054523E-01	-1.21385957E+01
3.93000000E+09	 7.47275198E-01	-1.21565917E+01
3.93500000E+09	 7.46820816E-01	-1.21784569E+01
3.94000000E+09	 7.45679245E-01	-1.22092183E+01
3.94500000E+09	 7.44991579E-01	-1.22128735E+01
3.95000000E+09	 7.44323232E-01	-1.22350727E+01
3.95500000E+09	 7.43405137E-01	-1.22521282E+01
3.96000000E+09	 7.42545622E-01	-1.22764061E+01
3.96500000E+09	 7.41851575E-01	-1.23064587E+01
3.97000000E+09	 7.40963690E-01	-1.23283299E+01
3.97500000E+09	 7.40174715E-01	-1.23562194E+01
3.98000000E+09	 7.39354333E-01	-1.23742967E+01
3.98500000E+09	 7.38808778E-01	-1.24054121E+01
3.99000000E+09	 7.37797466E-01	-1.24377026E+01
3.99500000E+09	 7.37022387E-01	-1.24584829E+01
4.00000000E+09	 7.36284454E-01	-1.24894123E+01
4.00500000E+09	 7.35543017E-01	-1.25252461E+01
4.01000000E+09	 7.34663779E-01	-1.25508219E+01
4.01500000E+09	 7.34091225E-01	-1.25817399E+01
4.02000000E+09	 7.33252477E-01	-1.26162829E+01
4.02500000E+09	 7.32349472E-01	-1.26494292E+01
4.03000000E+09	 7.31655661E-01	-1.27008203E+01
4.03500000E+09	 7.30792488E-01	-1.27353404E+01
4.04000000E+09	 7.30000106E-01	-1.27616351E+01
4.04500000E+09	 7.29242049E-01	-1.28083870E+01
4.05000000E+09	 7.28518091E-01	-1.28425285E+01
4.05500000E+09	 7.27682899E-01	-1.28865957E+01
4.06000000E+09	 7.26916950E-01	-1.29281905E+01
4.06500000E+09	 7.26148345E-01	-1.29706751E+01
4.07000000E+09	 7.25426631E-01	-1.30144562E+01
4.07500000E+09	 7.24507243E-01	-1.30595056E+01
4.08000000E+09	 7.23736128E-01	-1.31059031E+01
4.08500000E+09	 7.22852684E-01	-1.31463010E+01
4.09000000E+09	 7.22209689E-01	-1.31928703E+01
4.09500000E+09	 7.21344070E-01	-1.32566009E+01
4.10000000E+09	 7.20710132E-01	-1.32968533E+01
4.10500000E+09	 7.19999690E-01	-1.33416396E+01
4.11000000E+09	 7.19226566E-01	-1.33999148E+01
4.11500000E+09	 7.18297538E-01	-1.34423748E+01
4.12000000E+09	 7.17613140E-01	-1.35184798E+01
4.12500000E+09	 7.16711412E-01	-1.35419413E+01
4.13000000E+09	 7.15967583E-01	-1.36143755E+01
4.13500000E+09	 7.15382829E-01	-1.36902633E+01
4.14000000E+09	 7.14332059E-01	-1.37299903E+01
4.14500000E+09	 7.13786218E-01	-1.38098577E+01
4.15000000E+09	 7.12924344E-01	-1.38550428E+01
4.15500000E+09	 7.12342290E-01	-1.39186066E+01
4.16000000E+09	 7.11482673E-01	-1.39960785E+01
4.16500000E+09	 7.10979712E-01	-1.40744471E+01
4.17000000E+09	 7.10204208E-01	-1.41416313E+01
4.17500000E+09	 7.09237749E-01	-1.41964894E+01
4.18000000E+09	 7.08782589E-01	-1.42813072E+01
4.18500000E+09	 7.07991473E-01	-1.43680354E+01
4.19000000E+09	 7.07311587E-01	-1.44259610E+01
4.19500000E+09	 7.06746160E-01	-1.45123429E+01
4.20000000E+09	 7.06156073E-01	-1.45765195E+01
4.20500000E+09	 7.05373616E-01	-1.46729181E+01
4.21000000E+09	 7.04804058E-01	-1.47250736E+01
4.21500000E+09	 7.04203603E-01	-1.48037702E+01
4.22000000E+09	 7.03701973E-01	-1.49018631E+01
4.22500000E+09	 7.03197042E-01	-1.49634145E+01
4.23000000E+09	 7.02516354E-01	-1.50561197E+01
4.23500000E+09	 7.01990874E-01	-1.51423173E+01
4.24000000E+09	 7.01428547E-01	-1.52172752E+01
4.24500000E+09	 7.00964542E-01	-1.53315265E+01
4.25000000E+09	 7.00335205E-01	-1.54019394E+01
4.25500000E+09	 6.99656638E-01	-1.54827195E+01
4.26000000E+09	 6.99457456E-01	-1.55797877E+01
4.26500000E+09	 6.98731924E-01	-1.56583854E+01
4.27000000E+09	 6.98407491E-01	-1.57605147E+01
4.27500000E+09	 6.97950164E-01	-1.58495082E+01
4.28000000E+09	 6.97389556E-01	-1.59509627E+01
4.28500000E+09	 6.97017589E-01	-1.60412099E+01
4.29000000E+09	 6.96641652E-01	-1.61279941E+01
4.29500000E+09	 6.96086135E-01	-1.62193214E+01
4.30000000E+09	 6.95669950E-01	-1.63256281E+01
4.30500000E+09	 6.95176390E-01	-1.64146107E+01
4.31000000E+09	 6.94910389E-01	-1.65080424E+01
4.31500000E+09	 6.94596834E-01	-1.66087304E+01
4.32000000E+09	 6.94351157E-01	-1.67083803E+01
4.32500000E+09	 6.93753966E-01	-1.68048836E+01
4.33000000E+09	 6.93460583E-01	-1.68974394E+01
4.33500000E+09	 6.92893024E-01	-1.70076890E+01
4.34000000E+09	 6.92529555E-01	-1.71011962E+01
4.34500000E+09	 6.92268618E-01	-1.72088163E+01
4.35000000E+09	 6.91988908E-01	-1.73083022E+01
4.35500000E+09	 6.91641037E-01	-1.74248732E+01
4.36000000E+09	 6.91333161E-01	-1.75419448E+01
4.36500000E+09	 6.91053680E-01	-1.76613682E+01
4.37000000E+09	 6.90700452E-01	-1.77797984E+01
4.37500000E+09	 6.90861048E-01	-1.78843474E+01
4.38000000E+09	 6.90459164E-01	-1.80194360E+01
4.38500000E+09	 6.90524171E-01	-1.81575584E+01
4.39000000E+09	 6.90153451E-01	-1.82485554E+01
4.39500000E+09	 6.90140877E-01	-1.83547347E+01
4.40000000E+09	 6.90452906E-01	-1.84878279E+01
4.40500000E+09	 6.90131639E-01	-1.85687718E+01
4.41000000E+09	 6.90177634E-01	-1.87002207E+01
4.41500000E+09	 6.90612186E-01	-1.88319296E+01
4.42000000E+09	 6.90517998E-01	-1.89356624E+01
4.42500000E+09	 6.90724242E-01	-1.90473821E+01
4.43000000E+09	 6.90523264E-01	-1.91376083E+01
4.43500000E+09	 6.90551114E-01	-1.92315580E+01
4.44000000E+09	 6.90880843E-01	-1.93354704E+01
4.44500000E+09	 6.90525297E-01	-1.94339585E+01
4.45000000E+09	 6.90920485E-01	-1.95436705E+01
4.45500000E+09	 6.90682573E-01	-1.96490838E+01
4.46000000E+09	 6.90848350E-01	-1.97613470E+01
4.46500000E+09	 6.90950081E-01	-1.98514141E+01
4.47000000E+09	 6.90976178E-01	-1.99995022E+01
4.47500000E+09	 6.90858157E-01	-2.01343665E+01
4.48000000E+09	 6.90835831E-01	-2.02605993E+01
4.48500000E+09	 6.91192923E-01	-2.03908315E+01
4.49000000E+09	 6.91210040E-01	-2.05420651E+01
4.49500000E+09	 6.91627642E-01	-2.06668701E+01
4.50000000E+09	 6.92031398E-01	-2.08062573E+01
4.50500000E+09	 6.92699489E-01	-2.09208974E+01
4.51000000E+09	 6.93124767E-01	-2.10305549E+01
4.51500000E+09	 6.93801250E-01	-2.11646444E+01
4.52000000E+09	 6.94483438E-01	-2.12904131E+01
4.52500000E+09	 6.95242081E-01	-2.13903005E+01
4.53000000E+09	 6.95686614E-01	-2.14943329E+01
4.53500000E+09	 6.96648817E-01	-2.15940722E+01
4.54000000E+09	 6.96917368E-01	-2.17025991E+01
4.54500000E+09	 6.97637468E-01	-2.17780008E+01
4.55000000E+09	 6.98109526E-01	-2.18845405E+01
4.55500000E+09	 6.98693685E-01	-2.19839814E+01
4.56000000E+09	 6.99450226E-01	-2.20815590E+01
4.56500000E+09	 6.99812535E-01	-2.21836251E+01
4.57000000E+09	 7.00664748E-01	-2.22643539E+01
4.57500000E+09	 7.01269588E-01	-2.23539847E+01
4.58000000E+09	 7.01937734E-01	-2.24570931E+01
4.58500000E+09	 7.02464247E-01	-2.25598805E+01
4.59000000E+09	 7.03232683E-01	-2.26450419E+01
4.59500000E+09	 7.03746048E-01	-2.27395148E+01
4.60000000E+09	 7.04430962E-01	-2.28288658E+01
4.60500000E+09	 7.05117052E-01	-2.29251079E+01
4.61000000E+09	 7.05730315E-01	-2.30209331E+01
4.61500000E+09	 7.06463665E-01	-2.31206785E+01
4.62000000E+09	 7.07103304E-01	-2.32283131E+01
4.62500000E+09	 7.08025782E-01	-2.33129453E+01
4.63000000E+09	 7.08814665E-01	-2.34005398E+01
4.63500000E+09	 7.09736796E-01	-2.35002191E+01
4.64000000E+09	 7.10538675E-01	-2.35912675E+01
4.64500000E+09	 7.11417839E-01	-2.36895183E+01
4.65000000E+09	 7.12197792E-01	-2.37854401E+01
4.65500000E+09	 7.13438768E-01	-2.38704787E+01
4.66000000E+09	 7.14347607E-01	-2.39436455E+01
4.66500000E+09	 7.15718691E-01	-2.40186919E+01
4.67000000E+09	 7.16428035E-01	-2.41295361E+01
4.67500000E+09	 7.17701631E-01	-2.41960198E+01
4.68000000E+09	 7.18822475E-01	-2.42671267E+01
4.68500000E+09	 7.19805172E-01	-2.43298538E+01
4.69000000E+09	 7.20975145E-01	-2.43826366E+01
4.69500000E+09	 7.22352129E-01	-2.44602016E+01
4.70000000E+09	 7.23467910E-01	-2.44997991E+01
4.70500000E+09	 7.24741497E-01	-2.45844214E+01
4.71000000E+09	 7.26087118E-01	-2.46194262E+01
4.71500000E+09	 7.26803694E-01	-2.46575696E+01
4.72000000E+09	 7.28028830E-01	-2.47135347E+01
4.72500000E+09	 7.29240925E-01	-2.47517262E+01
4.73000000E+09	 7.30282002E-01	-2.47905596E+01
4.73500000E+09	 7.31349437E-01	-2.48469912E+01
4.74000000E+09	 7.32477379E-01	-2.48929226E+01
4.74500000E+09	 7.33359178E-01	-2.49657615E+01
4.75000000E+09	 7.34477514E-01	-2.50099812E+01
4.75500000E+09	 7.35687251E-01	-2.50518790E+01
4.76000000E+09	 7.36877853E-01	-2.51149884E+01
4.76500000E+09	 7.38382503E-01	-2.51710207E+01
4.77000000E+09	 7.39630565E-01	-2.52218802E+01
4.77500000E+09	 7.40836756E-01	-2.52956241E+01
4.78000000E+09	 7.42575099E-01	-2.53268053E+01
4.78500000E+09	 7.43914264E-01	-2.53467629E+01
4.79000000E+09	 7.45665168E-01	-2.53865794E+01
4.79500000E+09	 7.47089775E-01	-2.53978822E+01
4.80000000E+09	 7.48849699E-01	-2.54155898E+01
4.80500000E+09	 7.50045899E-01	-2.54086191E+01
4.81000000E+09	 7.51438092E-01	-2.54193572E+01
4.81500000E+09	 7.52809237E-01	-2.54086169E+01
4.82000000E+09	 7.54086930E-01	-2.54006801E+01
4.82500000E+09	 7.55309757E-01	-2.53944964E+01
4.83000000E+09	 7.56428925E-01	-2.54044999E+01
4.83500000E+09	 7.57751048E-01	-2.54053971E+01
4.84000000E+09	 7.58813300E-01	-2.54042161E+01
4.84500000E+09	 7.59805576E-01	-2.54092355E+01
4.85000000E+09	 7.60910217E-01	-2.54091643E+01
4.85500000E+09	 7.62069591E-01	-2.54012435E+01
4.86000000E+09	 7.63071621E-01	-2.54080493E+01
4.86500000E+09	 7.64366688E-01	-2.53966804E+01
4.87000000E+09	 7.65623197E-01	-2.54078463E+01
4.87500000E+09	 7.66787183E-01	-2.53994379E+01
4.88000000E+09	 7.67914894E-01	-2.53956070E+01
4.88500000E+09	 7.69050157E-01	-2.53928932E+01
4.89000000E+09	 7.70505864E-01	-2.53832998E+01
4.89500000E+09	 7.71777913E-01	-2.53704851E+01
4.90000000E+09	 7.72908316E-01	-2.53592123E+01
4.90500000E+09	 7.73928072E-01	-2.53570738E+01
4.91000000E+09	 7.75125701E-01	-2.53334644E+01
4.91500000E+09	 7.76367638E-01	-2.53121237E+01
4.92000000E+09	 7.77640781E-01	-2.52920645E+01
4.92500000E+09	 7.78611767E-01	-2.52751842E+01
4.93000000E+09	 7.79898937E-01	-2.52506926E+01
4.93500000E+09	 7.80869514E-01	-2.52416629E+01
4.94000000E+09	 7.82059628E-01	-2.51982959E+01
4.94500000E+09	 7.83407977E-01	-2.51833188E+01
4.95000000E+09	 7.84471662E-01	-2.51422213E+01
4.95500000E+09	 7.85768307E-01	-2.51230055E+01
4.96000000E+09	 7.87021751E-01	-2.50783024E+01
4.96500000E+09	 7.87996684E-01	-2.50416940E+01
4.97000000E+09	 7.89200382E-01	-2.50171321E+01
4.97500000E+09	 7.90261102E-01	-2.49936883E+01
4.98000000E+09	 7.91321352E-01	-2.49546777E+01
4.98500000E+09	 7.92461318E-01	-2.49167244E+01
4.99000000E+09	 7.93957344E-01	-2.48764586E+01
4.99500000E+09	 7.95013618E-01	-2.48364673E+01
5.00000000E+09	 7.96151298E-01	-2.48067089E+01
5.00500000E+09	 7.97589484E-01	-2.47514368E+01
5.01000000E+09	 7.98504278E-01	-2.47110088E+01
5.01500000E+09	 7.99523496E-01	-2.46676962E+01
5.02000000E+09	 8.00721184E-01	-2.45983393E+01
5.02500000E+09	 8.01834042E-01	-2.45306122E+01
5.03000000E+09	 8.03004512E-01	-2.44953197E+01
5.03500000E+09	 8.04368335E-01	-2.44298628E+01
5.04000000E+09	 8.05362622E-01	-2.43464562E+01
5.04500000E+09	 8.06287702E-01	-2.42856990E+01
5.05000000E+09	 8.07225448E-01	-2.42379989E+01
5.05500000E+09	 8.08603418E-01	-2.41417222E+01
5.06000000E+09	 8.08940962E-01	-2.40802276E+01
5.06500000E+09	 8.09651685E-01	-2.40077407E+01
5.07000000E+09	 8.10572578E-01	-2.39497928E+01
5.07500000E+09	 8.11394408E-01	-2.38751291E+01
5.08000000E+09	 8.11813812E-01	-2.38118325E+01
5.08500000E+09	 8.12492176E-01	-2.37133299E+01
5.09000000E+09	 8.13304984E-01	-2.36658730E+01
5.09500000E+09	 8.13493968E-01	-2.35967612E+01
5.10000000E+09	 8.14276961E-01	-2.35467118E+01
5.10500000E+09	 8.15201279E-01	-2.34598029E+01
5.11000000E+09	 8.16009119E-01	-2.34275805E+01
5.11500000E+09	 8.16519478E-01	-2.33510905E+01
5.12000000E+09	 8.17296416E-01	-2.32919847E+01
5.12500000E+09	 8.18186672E-01	-2.32071925E+01
5.13000000E+09	 8.18855625E-01	-2.31399207E+01
5.13500000E+09	 8.19554474E-01	-2.30809477E+01
5.14000000E+09	 8.20194406E-01	-2.29871978E+01
5.14500000E+09	 8.20807158E-01	-2.29192036E+01
5.15000000E+09	 8.21332608E-01	-2.28519420E+01
5.15500000E+09	 8.21933408E-01	-2.27639711E+01
5.16000000E+09	 8.22504601E-01	-2.26977549E+01
5.16500000E+09	 8.22986785E-01	-2.26201441E+01
5.17000000E+09	 8.23545341E-01	-2.25410615E+01
5.17500000E+09	 8.23988516E-01	-2.24555254E+01
5.18000000E+09	 8.24509555E-01	-2.23931073E+01
5.18500000E+09	 8.24995154E-01	-2.23258867E+01
5.19000000E+09	 8.25433169E-01	-2.22374083E+01
5.19500000E+09	 8.25910271E-01	-2.21675188E+01
5.20000000E+09	 8.26289398E-01	-2.20883383E+01
5.20500000E+09	 8.26627059E-01	-2.20065596E+01
5.21000000E+09	 8.27008507E-01	-2.19287411E+01
5.21500000E+09	 8.27373424E-01	-2.18564403E+01
5.22000000E+09	 8.27627536E-01	-2.17780279E+01
5.22500000E+09	 8.27941238E-01	-2.17022278E+01
5.23000000E+09	 8.28269943E-01	-2.16122669E+01
5.23500000E+09	 8.28300777E-01	-2.15553911E+01
5.24000000E+09	 8.28418107E-01	-2.14716103E+01
5.24500000E+09	 8.28600304E-01	-2.14078571E+01
5.25000000E+09	 8.28878617E-01	-2.13414555E+01
5.25500000E+09	 8.29001791E-01	-2.12487586E+01
5.26000000E+09	 8.29203368E-01	-2.11864272E+01
5.26500000E+09	 8.29613150E-01	-2.11096341E+01
5.27000000E+09	 8.29677683E-01	-2.10382088E+01
5.27500000E+09	 8.29934917E-01	-2.09799183E+01
5.28000000E+09	 8.30115063E-01	-2.09042242E+01
5.28500000E+09	 8.30416090E-01	-2.08199159E+01
5.29000000E+09	 8.30448180E-01	-2.07557026E+01
5.29500000E+09	 8.31153714E-01	-2.06691352E+01
5.30000000E+09	 8.31253736E-01	-2.05947885E+01
5.30500000E+09	 8.31136348E-01	-2.05023976E+01
5.31000000E+09	 8.31502569E-01	-2.04228213E+01
5.31500000E+09	 8.31710027E-01	-2.03348961E+01
5.32000000E+09	 8.31843958E-01	-2.02543187E+01
5.32500000E+09	 8.31902047E-01	-2.01551378E+01
5.33000000E+09	 8.31905488E-01	-2.00755030E+01
5.33500000E+09	 8.32387568E-01	-1.99970434E+01
5.34000000E+09	 8.32089476E-01	-1.98922191E+01
5.34500000E+09	 8.32169462E-01	-1.98184289E+01
5.35000000E+09	 8.31796530E-01	-1.97303997E+01
5.35500000E+09	 8.31618557E-01	-1.96459715E+01
5.36000000E+09	 8.31325300E-01	-1.95548551E+01
5.36500000E+09	 8.31282294E-01	-1.94766805E+01
5.37000000E+09	 8.31159248E-01	-1.94001308E+01
5.37500000E+09	 8.31022742E-01	-1.93251210E+01
5.38000000E+09	 8.30710806E-01	-1.92535769E+01
5.38500000E+09	 8.30672713E-01	-1.91702343E+01
5.39000000E+09	 8.30514862E-01	-1.90993209E+01
5.39500000E+09	 8.30197715E-01	-1.90275202E+01
5.40000000E+09	 8.30076433E-01	-1.89524100E+01
5.40500000E+09	 8.29900933E-01	-1.88779679E+01
5.41000000E+09	 8.29649604E-01	-1.87973775E+01
5.41500000E+09	 8.29391839E-01	-1.87300040E+01
5.42000000E+09	 8.29196877E-01	-1.86532909E+01
5.42500000E+09	 8.28852629E-01	-1.85767032E+01
5.43000000E+09	 8.28693429E-01	-1.84947485E+01
5.43500000E+09	 8.28346222E-01	-1.84236902E+01
5.44000000E+09	 8.28064569E-01	-1.83413634E+01
5.44500000E+09	 8.27853567E-01	-1.82731570E+01
5.45000000E+09	 8.27336446E-01	-1.81852430E+01
5.45500000E+09	 8.26996657E-01	-1.81027183E+01
5.46000000E+09	 8.26379032E-01	-1.80380964E+01
5.46500000E+09	 8.26011907E-01	-1.79533971E+01
5.47000000E+09	 8.25406554E-01	-1.78921034E+01
5.47500000E+09	 8.24899817E-01	-1.78145333E+01
5.48000000E+09	 8.24514278E-01	-1.77641819E+01
5.48500000E+09	 8.23856578E-01	-1.77093872E+01
5.49000000E+09	 8.23297367E-01	-1.76385889E+01
5.49500000E+09	 8.22755123E-01	-1.75932350E+01
5.50000000E+09	 8.22474939E-01	-1.75126938E+01
5.50500000E+09	 8.21552222E-01	-1.74536483E+01
5.51000000E+09	 8.21235495E-01	-1.74096661E+01
5.51500000E+09	 8.20897130E-01	-1.73442056E+01
5.52000000E+09	 8.20192502E-01	-1.73068493E+01
5.52500000E+09	 8.19955617E-01	-1.72355465E+01
5.53000000E+09	 8.19253236E-01	-1.71611754E+01
5.53500000E+09	 8.18864121E-01	-1.71132708E+01
5.54000000E+09	 8.18058168E-01	-1.70630130E+01
5.54500000E+09	 8.17640175E-01	-1.70214883E+01
5.55000000E+09	 8.16755338E-01	-1.69413235E+01
5.55500000E+09	 8.16285040E-01	-1.68897755E+01
5.56000000E+09	 8.15545340E-01	-1.68375796E+01
5.56500000E+09	 8.15019033E-01	-1.67802779E+01
5.57000000E+09	 8.14066218E-01	-1.67406362E+01
5.57500000E+09	 8.13262014E-01	-1.66988983E+01
5.58000000E+09	 8.12943427E-01	-1.66040048E+01
5.58500000E+09	 8.12327588E-01	-1.65982936E+01
5.59000000E+09	 8.11421826E-01	-1.65456467E+01
5.59500000E+09	 8.10783711E-01	-1.64978770E+01
5.60000000E+09	 8.10124191E-01	-1.64786837E+01
5.60500000E+09	 8.09232531E-01	-1.64229240E+01
5.61000000E+09	 8.09047877E-01	-1.64012202E+01
5.61500000E+09	 8.08076354E-01	-1.63429109E+01
5.62000000E+09	 8.07636961E-01	-1.62931419E+01
5.62500000E+09	 8.06648426E-01	-1.62642908E+01
5.63000000E+09	 8.06619892E-01	-1.61744172E+01
5.63500000E+09	 8.05758354E-01	-1.61496619E+01
5.64000000E+09	 8.04613737E-01	-1.61011030E+01
5.64500000E+09	 8.04110337E-01	-1.60378871E+01
5.65000000E+09	 8.03447317E-01	-1.60032400E+01
5.65500000E+09	 8.02840070E-01	-1.59619495E+01
5.66000000E+09	 8.01776072E-01	-1.59110314E+01
5.66500000E+09	 8.00945049E-01	-1.58717590E+01
5.67000000E+09	 8.00215121E-01	-1.58387596E+01
5.67500000E+09	 7.99243086E-01	-1.57912250E+01
5.68000000E+09	 7.98345757E-01	-1.57516348E+01
5.68500000E+09	 7.97908980E-01	-1.57406524E+01
5.69000000E+09	 7.97019494E-01	-1.56893597E+01
5.69500000E+09	 7.96071508E-01	-1.56387627E+01
5.70000000E+09	 7.95368050E-01	-1.55941416E+01
5.70500000E+09	 7.94831758E-01	-1.55470750E+01
5.71000000E+09	 7.93610824E-01	-1.55246224E+01
5.71500000E+09	 7.92747924E-01	-1.54770588E+01
5.72000000E+09	 7.91846505E-01	-1.54486694E+01
5.72500000E+09	 7.90924552E-01	-1.54244061E+01
5.73000000E+09	 7.90022824E-01	-1.53740287E+01
5.73500000E+09	 7.88974773E-01	-1.53340607E+01
5.74000000E+09	 7.88204532E-01	-1.53059312E+01
5.74500000E+09	 7.87221662E-01	-1.52733372E+01
5.75000000E+09	 7.86336568E-01	-1.52296191E+01
5.75500000E+09	 7.85282473E-01	-1.51938189E+01
5.76000000E+09	 7.84419680E-01	-1.51562650E+01
5.76500000E+09	 7.83351989E-01	-1.51248569E+01
5.77000000E+09	 7.82301041E-01	-1.50911085E+01
5.77500000E+09	 7.81168779E-01	-1.50648101E+01
5.78000000E+09	 7.80117817E-01	-1.50323270E+01
5.78500000E+09	 7.78923048E-01	-1.50045015E+01
5.79000000E+09	 7.77960564E-01	-1.49727539E+01
5.79500000E+09	 7.76701725E-01	-1.49436822E+01
5.80000000E+09	 7.75364745E-01	-1.49318161E+01
5.80500000E+09	 7.74261933E-01	-1.49003797E+01
5.81000000E+09	 7.73078831E-01	-1.48766983E+01
5.81500000E+09	 7.71918547E-01	-1.48592866E+01
5.82000000E+09	 7.70601125E-01	-1.48314545E+01
5.82500000E+09	 7.69350287E-01	-1.48169898E+01
5.83000000E+09	 7.68285472E-01	-1.47916264E+01
5.83500000E+09	 7.66711649E-01	-1.47978334E+01
5.84000000E+09	 7.65442604E-01	-1.47965460E+01
5.84500000E+09	 7.64359265E-01	-1.47731919E+01
5.85000000E+09	 7.62792407E-01	-1.47705193E+01
5.85500000E+09	 7.61433455E-01	-1.47597751E+01
5.86000000E+09	 7.60191892E-01	-1.47507407E+01
5.86500000E+09	 7.58813664E-01	-1.47610027E+01
5.87000000E+09	 7.57602498E-01	-1.47437079E+01
5.87500000E+09	 7.56611770E-01	-1.47452642E+01
5.88000000E+09	 7.54976344E-01	-1.47543276E+01
5.88500000E+09	 7.53817209E-01	-1.47363994E+01
5.89000000E+09	 7.52427684E-01	-1.47449271E+01
5.89500000E+09	 7.51125248E-01	-1.47715656E+01
5.90000000E+09	 7.49636710E-01	-1.47654415E+01
5.90500000E+09	 7.48814300E-01	-1.47567369E+01
5.91000000E+09	 7.47383345E-01	-1.47611417E+01
5.91500000E+09	 7.46025273E-01	-1.47684945E+01
5.92000000E+09	 7.44682444E-01	-1.47887760E+01
5.92500000E+09	 7.43506263E-01	-1.47972295E+01
5.93000000E+09	 7.42003685E-01	-1.48088418E+01
5.93500000E+09	 7.40734096E-01	-1.48257789E+01
5.94000000E+09	 7.39138853E-01	-1.48374451E+01
5.94500000E+09	 7.38147406E-01	-1.48606390E+01
5.95000000E+09	 7.36165452E-01	-1.48854123E+01
5.95500000E+09	 7.34873305E-01	-1.49239237E+01
5.96000000E+09	 7.33388759E-01	-1.49385825E+01
5.96500000E+09	 7.32101017E-01	-1.49652627E+01
5.97000000E+09	 7.30897268E-01	-1.50093555E+01
5.97500000E+09	 7.29359390E-01	-1.50403171E+01
5.98000000E+09	 7.28241148E-01	-1.50879136E+01
5.98500000E+09	 7.27049096E-01	-1.51333164E+01
5.99000000E+09	 7.25839254E-01	-1.51584169E+01
5.99500000E+09	 7.24647085E-01	-1.51919636E+01
6.00000000E+09	 7.23189490E-01	-1.52341338E+01
