! COPPER MOUNTAIN TECHNOLOGIES, R60, 23103002, 24.3.3/3.0
! Date: 24/6/2026 15:42:33
! Data: Format [Calibration Info]
! Frequency		S11: Mag/Ang F1                
# HZ S MA R 50
1.00000000E+08	 9.95595820E-01	-1.68559419E+00
1.05000000E+08	 9.95074798E-01	-1.76064086E+00
1.10000000E+08	 9.94589086E-01	-1.84432091E+00
1.15000000E+08	 9.94248951E-01	-1.92198953E+00
1.20000000E+08	 9.93567480E-01	-1.99526350E+00
1.25000000E+08	 9.93125984E-01	-2.07446358E+00
1.30000000E+08	 9.92715150E-01	-2.15886459E+00
1.35000000E+08	 9.92151832E-01	-2.22741516E+00
1.40000000E+08	 9.91537608E-01	-2.29583302E+00
1.45000000E+08	 9.91077397E-01	-2.38109828E+00
1.50000000E+08	 9.90449876E-01	-2.44442006E+00
1.55000000E+08	 9.89837357E-01	-2.51802145E+00
1.60000000E+08	 9.89278585E-01	-2.58676705E+00
1.65000000E+08	 9.88780128E-01	-2.66264697E+00
1.70000000E+08	 9.88223487E-01	-2.72032168E+00
1.75000000E+08	 9.87640886E-01	-2.79686405E+00
1.80000000E+08	 9.86880956E-01	-2.85214239E+00
1.85000000E+08	 9.86208441E-01	-2.92206102E+00
1.90000000E+08	 9.85623253E-01	-2.99320948E+00
1.95000000E+08	 9.84990117E-01	-3.05796381E+00
2.00000000E+08	 9.84236231E-01	-3.11728403E+00
2.05000000E+08	 9.83502660E-01	-3.17666292E+00
2.10000000E+08	 9.82871335E-01	-3.24589452E+00
2.15000000E+08	 9.82099082E-01	-3.30062928E+00
2.20000000E+08	 9.81349264E-01	-3.36294491E+00
2.25000000E+08	 9.80563433E-01	-3.41594415E+00
2.30000000E+08	 9.79842285E-01	-3.47903414E+00
2.35000000E+08	 9.79355854E-01	-3.53738391E+00
2.40000000E+08	 9.78460159E-01	-3.59017632E+00
2.45000000E+08	 9.77846275E-01	-3.63967650E+00
2.50000000E+08	 9.77165130E-01	-3.69732883E+00
2.55000000E+08	 9.76382895E-01	-3.74589959E+00
2.60000000E+08	 9.75720582E-01	-3.80013677E+00
2.65000000E+08	 9.74932308E-01	-3.84934140E+00
2.70000000E+08	 9.74104435E-01	-3.89940845E+00
2.75000000E+08	 9.73360913E-01	-3.94923594E+00
2.80000000E+08	 9.72734185E-01	-3.99835390E+00
2.85000000E+08	 9.71978734E-01	-4.04211490E+00
2.90000000E+08	 9.71109866E-01	-4.09093073E+00
2.95000000E+08	 9.70491845E-01	-4.12955327E+00
3.00000000E+08	 9.69783403E-01	-4.18316241E+00
3.05000000E+08	 9.69106911E-01	-4.22056929E+00
3.10000000E+08	 9.68303222E-01	-4.26894897E+00
3.15000000E+08	 9.67595329E-01	-4.30155458E+00
3.20000000E+08	 9.66866724E-01	-4.34379328E+00
3.25000000E+08	 9.66063574E-01	-4.38638204E+00
3.30000000E+08	 9.65390793E-01	-4.41951091E+00
3.35000000E+08	 9.64542324E-01	-4.46281267E+00
3.40000000E+08	 9.63940498E-01	-4.50195777E+00
3.45000000E+08	 9.63180167E-01	-4.53160895E+00
3.50000000E+08	 9.62624002E-01	-4.56888906E+00
3.55000000E+08	 9.61794291E-01	-4.60174398E+00
3.60000000E+08	 9.61087259E-01	-4.64163026E+00
3.65000000E+08	 9.60335634E-01	-4.66745170E+00
3.70000000E+08	 9.59656097E-01	-4.71003841E+00
3.75000000E+08	 9.58927692E-01	-4.73985149E+00
3.80000000E+08	 9.58364968E-01	-4.76612779E+00
3.85000000E+08	 9.57655002E-01	-4.78985579E+00
3.90000000E+08	 9.57071563E-01	-4.82794201E+00
3.95000000E+08	 9.56320347E-01	-4.85175536E+00
4.00000000E+08	 9.55606334E-01	-4.88428130E+00
4.05000000E+08	 9.54930648E-01	-4.91520427E+00
4.10000000E+08	 9.54241536E-01	-4.94064564E+00
4.15000000E+08	 9.53662840E-01	-4.96900906E+00
4.20000000E+08	 9.53033998E-01	-4.98969041E+00
4.25000000E+08	 9.52355321E-01	-5.01511902E+00
4.30000000E+08	 9.51668998E-01	-5.04337167E+00
4.35000000E+08	 9.51212487E-01	-5.05972992E+00
4.40000000E+08	 9.50524218E-01	-5.08758310E+00
4.45000000E+08	 9.49859358E-01	-5.11066082E+00
4.50000000E+08	 9.49267442E-01	-5.13608931E+00
4.55000000E+08	 9.48698660E-01	-5.15810508E+00
4.60000000E+08	 9.48101576E-01	-5.17437033E+00
4.65000000E+08	 9.47538151E-01	-5.19560338E+00
4.70000000E+08	 9.46959039E-01	-5.22165657E+00
4.75000000E+08	 9.46491915E-01	-5.23977063E+00
4.80000000E+08	 9.45811944E-01	-5.25762720E+00
4.85000000E+08	 9.45087795E-01	-5.27388905E+00
4.90000000E+08	 9.44602957E-01	-5.29587685E+00
4.95000000E+08	 9.44054494E-01	-5.31096834E+00
5.00000000E+08	 9.43498098E-01	-5.32343571E+00
5.05000000E+08	 9.42978196E-01	-5.34405293E+00
5.10000000E+08	 9.42515164E-01	-5.35252302E+00
5.15000000E+08	 9.41824144E-01	-5.37573667E+00
5.20000000E+08	 9.41358108E-01	-5.39004779E+00
5.25000000E+08	 9.40915028E-01	-5.41422252E+00
5.30000000E+08	 9.40425352E-01	-5.42120579E+00
5.35000000E+08	 9.39826795E-01	-5.43110137E+00
5.40000000E+08	 9.39395708E-01	-5.44873780E+00
5.45000000E+08	 9.38831260E-01	-5.46477326E+00
5.50000000E+08	 9.38403222E-01	-5.47995852E+00
5.55000000E+08	 9.37931787E-01	-5.49069936E+00
5.60000000E+08	 9.37386334E-01	-5.50363818E+00
5.65000000E+08	 9.37026105E-01	-5.51657849E+00
5.70000000E+08	 9.36471248E-01	-5.52773480E+00
5.75000000E+08	 9.36072217E-01	-5.53736297E+00
5.80000000E+08	 9.35569594E-01	-5.55601268E+00
5.85000000E+08	 9.35174572E-01	-5.56306117E+00
5.90000000E+08	 9.34722381E-01	-5.56952361E+00
5.95000000E+08	 9.34236766E-01	-5.58283621E+00
6.00000000E+08	 9.33804100E-01	-5.58865435E+00
6.05000000E+08	 9.33405853E-01	-5.60396616E+00
6.10000000E+08	 9.32967868E-01	-5.62158629E+00
6.15000000E+08	 9.32511704E-01	-5.62074644E+00
6.20000000E+08	 9.32253494E-01	-5.62947872E+00
6.25000000E+08	 9.31772729E-01	-5.63909203E+00
6.30000000E+08	 9.31389759E-01	-5.64295900E+00
6.35000000E+08	 9.31065824E-01	-5.65596940E+00
6.40000000E+08	 9.30552372E-01	-5.66134524E+00
6.45000000E+08	 9.30088951E-01	-5.67838630E+00
6.50000000E+08	 9.29777445E-01	-5.68126937E+00
6.55000000E+08	 9.29436698E-01	-5.68431547E+00
6.60000000E+08	 9.29057900E-01	-5.69524541E+00
6.65000000E+08	 9.28758132E-01	-5.70259264E+00
6.70000000E+08	 9.28360838E-01	-5.70509603E+00
6.75000000E+08	 9.28005128E-01	-5.71374409E+00
6.80000000E+08	 9.27524758E-01	-5.72037620E+00
6.85000000E+08	 9.27177520E-01	-5.72611586E+00
6.90000000E+08	 9.26839809E-01	-5.73515897E+00
6.95000000E+08	 9.26522830E-01	-5.73730734E+00
7.00000000E+08	 9.26221861E-01	-5.74067849E+00
7.05000000E+08	 9.25851465E-01	-5.74999893E+00
7.10000000E+08	 9.25653921E-01	-5.75685791E+00
7.15000000E+08	 9.25213187E-01	-5.75910141E+00
7.20000000E+08	 9.24954413E-01	-5.76973453E+00
7.25000000E+08	 9.24544384E-01	-5.77149152E+00
7.30000000E+08	 9.24255008E-01	-5.76819030E+00
7.35000000E+08	 9.23954649E-01	-5.78050248E+00
7.40000000E+08	 9.23525928E-01	-5.78196144E+00
7.45000000E+08	 9.23315685E-01	-5.78586143E+00
7.50000000E+08	 9.23022386E-01	-5.80010130E+00
7.55000000E+08	 9.22684471E-01	-5.79825408E+00
7.60000000E+08	 9.22445360E-01	-5.80230548E+00
7.65000000E+08	 9.22165203E-01	-5.81496731E+00
7.70000000E+08	 9.21849930E-01	-5.81479539E+00
7.75000000E+08	 9.21657916E-01	-5.82142535E+00
7.80000000E+08	 9.21317516E-01	-5.82046038E+00
7.85000000E+08	 9.21052770E-01	-5.83711566E+00
7.90000000E+08	 9.20744056E-01	-5.82910021E+00
7.95000000E+08	 9.20420990E-01	-5.83574053E+00
8.00000000E+08	 9.20191927E-01	-5.83723734E+00
8.05000000E+08	 9.19925523E-01	-5.84405573E+00
8.10000000E+08	 9.19663077E-01	-5.84146217E+00
8.15000000E+08	 9.19408408E-01	-5.84536043E+00
8.20000000E+08	 9.19181749E-01	-5.85305183E+00
8.25000000E+08	 9.18846541E-01	-5.85507497E+00
8.30000000E+08	 9.18566753E-01	-5.86311536E+00
8.35000000E+08	 9.18430764E-01	-5.85579004E+00
8.40000000E+08	 9.18223646E-01	-5.86752713E+00
8.45000000E+08	 9.18054178E-01	-5.87093681E+00
8.50000000E+08	 9.17613693E-01	-5.86989025E+00
8.55000000E+08	 9.17494318E-01	-5.87909366E+00
8.60000000E+08	 9.17235378E-01	-5.88070706E+00
8.65000000E+08	 9.16992062E-01	-5.88562355E+00
8.70000000E+08	 9.16796116E-01	-5.89042932E+00
8.75000000E+08	 9.16605373E-01	-5.89754493E+00
8.80000000E+08	 9.16432539E-01	-5.89367304E+00
8.85000000E+08	 9.16108653E-01	-5.90207988E+00
8.90000000E+08	 9.15850757E-01	-5.90056347E+00
8.95000000E+08	 9.15593764E-01	-5.90396882E+00
9.00000000E+08	 9.15352196E-01	-5.90604043E+00
9.05000000E+08	 9.15258966E-01	-5.90898002E+00
9.10000000E+08	 9.14929598E-01	-5.91521125E+00
9.15000000E+08	 9.14777703E-01	-5.92126321E+00
9.20000000E+08	 9.14448088E-01	-5.92671218E+00
9.25000000E+08	 9.14363724E-01	-5.92423791E+00
9.30000000E+08	 9.14079405E-01	-5.93453778E+00
9.35000000E+08	 9.13952442E-01	-5.93586896E+00
9.40000000E+08	 9.13724774E-01	-5.93995242E+00
9.45000000E+08	 9.13316018E-01	-5.94265772E+00
9.50000000E+08	 9.13196225E-01	-5.93846249E+00
9.55000000E+08	 9.13110553E-01	-5.94532324E+00
9.60000000E+08	 9.12805744E-01	-5.94777696E+00
9.65000000E+08	 9.12505650E-01	-5.94473490E+00
9.70000000E+08	 9.12366493E-01	-5.94749067E+00
9.75000000E+08	 9.12100996E-01	-5.95670201E+00
9.80000000E+08	 9.12033375E-01	-5.95936694E+00
9.85000000E+08	 9.11975209E-01	-5.96089361E+00
9.90000000E+08	 9.11657228E-01	-5.96241163E+00
9.95000000E+08	 9.11475730E-01	-5.96313957E+00
1.00000000E+09	 9.11280943E-01	-5.97338258E+00
1.00500000E+09	 9.11141934E-01	-5.97526647E+00
1.01000000E+09	 9.10842906E-01	-5.97497849E+00
1.01500000E+09	 9.10670881E-01	-5.98234171E+00
1.02000000E+09	 9.10448340E-01	-5.97979773E+00
1.02500000E+09	 9.10222670E-01	-5.97890225E+00
1.03000000E+09	 9.10126427E-01	-5.98858720E+00
1.03500000E+09	 9.09832936E-01	-5.98413983E+00
1.04000000E+09	 9.09810683E-01	-5.99438781E+00
1.04500000E+09	 9.09463862E-01	-5.99511946E+00
1.05000000E+09	 9.09355712E-01	-5.99400866E+00
1.05500000E+09	 9.09153200E-01	-5.99538126E+00
1.06000000E+09	 9.08935549E-01	-6.00367997E+00
1.06500000E+09	 9.08762617E-01	-5.99940268E+00
1.07000000E+09	 9.08519298E-01	-6.00467436E+00
1.07500000E+09	 9.08497380E-01	-6.01073288E+00
1.08000000E+09	 9.08245463E-01	-6.01027031E+00
1.08500000E+09	 9.08035492E-01	-6.01392024E+00
1.09000000E+09	 9.07757323E-01	-6.01657118E+00
1.09500000E+09	 9.07565922E-01	-6.02118586E+00
1.10000000E+09	 9.07457288E-01	-6.02310256E+00
1.10500000E+09	 9.07339896E-01	-6.01862945E+00
1.11000000E+09	 9.07188184E-01	-6.01462534E+00
1.11500000E+09	 9.06876808E-01	-6.02643754E+00
1.12000000E+09	 9.06758876E-01	-6.02675311E+00
1.12500000E+09	 9.06530899E-01	-6.03130879E+00
1.13000000E+09	 9.06347743E-01	-6.02672151E+00
1.13500000E+09	 9.06139388E-01	-6.03548898E+00
1.14000000E+09	 9.05998073E-01	-6.03295680E+00
1.14500000E+09	 9.05799914E-01	-6.03230675E+00
1.15000000E+09	 9.05737138E-01	-6.02705730E+00
1.15500000E+09	 9.05432888E-01	-6.03543801E+00
1.16000000E+09	 9.05311907E-01	-6.03731663E+00
1.16500000E+09	 9.05072367E-01	-6.04106006E+00
1.17000000E+09	 9.04832222E-01	-6.03227429E+00
1.17500000E+09	 9.04647059E-01	-6.03968831E+00
1.18000000E+09	 9.04444054E-01	-6.04080357E+00
1.18500000E+09	 9.04283009E-01	-6.04151078E+00
1.19000000E+09	 9.04117214E-01	-6.04693646E+00
1.19500000E+09	 9.03936116E-01	-6.05168859E+00
1.20000000E+09	 9.03738857E-01	-6.05146244E+00
1.20500000E+09	 9.03506490E-01	-6.04638425E+00
1.21000000E+09	 9.03379198E-01	-6.05444643E+00
1.21500000E+09	 9.03238892E-01	-6.05408980E+00
1.22000000E+09	 9.02845920E-01	-6.05455356E+00
1.22500000E+09	 9.02687858E-01	-6.05734101E+00
1.23000000E+09	 9.02597267E-01	-6.05257595E+00
1.23500000E+09	 9.02317144E-01	-6.05080168E+00
1.24000000E+09	 9.02025050E-01	-6.05361584E+00
1.24500000E+09	 9.01811181E-01	-6.06007429E+00
1.25000000E+09	 9.01805623E-01	-6.05850674E+00
1.25500000E+09	 9.01493431E-01	-6.06031882E+00
1.26000000E+09	 9.01255190E-01	-6.05729563E+00
1.26500000E+09	 9.01054407E-01	-6.05158891E+00
1.27000000E+09	 9.01086241E-01	-6.05190109E+00
1.27500000E+09	 9.00833677E-01	-6.05527765E+00
1.28000000E+09	 9.00586648E-01	-6.05975012E+00
1.28500000E+09	 9.00266775E-01	-6.05444305E+00
1.29000000E+09	 9.00102931E-01	-6.05004017E+00
1.29500000E+09	 8.99872885E-01	-6.05938700E+00
1.30000000E+09	 8.99634639E-01	-6.06188703E+00
1.30500000E+09	 8.99425837E-01	-6.05237340E+00
1.31000000E+09	 8.99137602E-01	-6.05964496E+00
1.31500000E+09	 8.98970465E-01	-6.05525629E+00
1.32000000E+09	 8.98773757E-01	-6.05799297E+00
1.32500000E+09	 8.98613211E-01	-6.05288686E+00
1.33000000E+09	 8.98268239E-01	-6.06188670E+00
1.33500000E+09	 8.98128761E-01	-6.07224619E+00
1.34000000E+09	 8.97913821E-01	-6.06011455E+00
1.34500000E+09	 8.97554414E-01	-6.06087092E+00
1.35000000E+09	 8.97380884E-01	-6.06244366E+00
1.35500000E+09	 8.97217901E-01	-6.06194707E+00
1.36000000E+09	 8.96984017E-01	-6.06544062E+00
1.36500000E+09	 8.96563983E-01	-6.06859266E+00
1.37000000E+09	 8.96617148E-01	-6.07141325E+00
1.37500000E+09	 8.96313301E-01	-6.06990277E+00
1.38000000E+09	 8.96054277E-01	-6.07705331E+00
1.38500000E+09	 8.95777284E-01	-6.07802742E+00
1.39000000E+09	 8.95547590E-01	-6.07554272E+00
1.39500000E+09	 8.95210977E-01	-6.07563339E+00
1.40000000E+09	 8.95160783E-01	-6.08327977E+00
1.40500000E+09	 8.94853314E-01	-6.07599797E+00
1.41000000E+09	 8.94574384E-01	-6.07698552E+00
1.41500000E+09	 8.94331935E-01	-6.08064666E+00
1.42000000E+09	 8.94002035E-01	-6.08505581E+00
1.42500000E+09	 8.93848679E-01	-6.08514222E+00
1.43000000E+09	 8.93498418E-01	-6.08157333E+00
1.43500000E+09	 8.93185798E-01	-6.08817874E+00
1.44000000E+09	 8.92940821E-01	-6.08472878E+00
1.44500000E+09	 8.92718271E-01	-6.09824951E+00
1.45000000E+09	 8.92523322E-01	-6.09493252E+00
1.45500000E+09	 8.92172024E-01	-6.09086118E+00
1.46000000E+09	 8.92055454E-01	-6.09320239E+00
1.46500000E+09	 8.91651274E-01	-6.09510625E+00
1.47000000E+09	 8.91516845E-01	-6.09493758E+00
1.47500000E+09	 8.91215815E-01	-6.09562623E+00
1.48000000E+09	 8.91051337E-01	-6.10506795E+00
1.48500000E+09	 8.90787034E-01	-6.10424408E+00
1.49000000E+09	 8.90482894E-01	-6.10142847E+00
1.49500000E+09	 8.90274528E-01	-6.10820546E+00
1.50000000E+09	 8.89948375E-01	-6.10877062E+00
1.50500000E+09	 8.89663098E-01	-6.11860530E+00
1.51000000E+09	 8.89382574E-01	-6.11661040E+00
1.51500000E+09	 8.89354717E-01	-6.11886118E+00
1.52000000E+09	 8.88870255E-01	-6.12547555E+00
1.52500000E+09	 8.88630123E-01	-6.11838312E+00
1.53000000E+09	 8.88447462E-01	-6.12627003E+00
1.53500000E+09	 8.88198642E-01	-6.12990162E+00
1.54000000E+09	 8.87888309E-01	-6.13513586E+00
1.54500000E+09	 8.87677221E-01	-6.12925833E+00
1.55000000E+09	 8.87452882E-01	-6.14390292E+00
1.55500000E+09	 8.87178390E-01	-6.13505525E+00
1.56000000E+09	 8.87001979E-01	-6.13760029E+00
1.56500000E+09	 8.86761227E-01	-6.13707895E+00
1.57000000E+09	 8.86492891E-01	-6.14602910E+00
1.57500000E+09	 8.86171798E-01	-6.14964424E+00
1.58000000E+09	 8.85929383E-01	-6.14611776E+00
1.58500000E+09	 8.85537301E-01	-6.15546864E+00
1.59000000E+09	 8.85290345E-01	-6.15341095E+00
1.59500000E+09	 8.85061050E-01	-6.15880562E+00
1.60000000E+09	 8.84697119E-01	-6.16462082E+00
1.60500000E+09	 8.84486482E-01	-6.17901369E+00
1.61000000E+09	 8.84268495E-01	-6.17198569E+00
1.61500000E+09	 8.84016548E-01	-6.17651264E+00
1.62000000E+09	 8.83711703E-01	-6.18448822E+00
1.62500000E+09	 8.83658023E-01	-6.17660839E+00
1.63000000E+09	 8.83179025E-01	-6.17957847E+00
1.63500000E+09	 8.82817286E-01	-6.18229444E+00
1.64000000E+09	 8.82715553E-01	-6.19562915E+00
1.64500000E+09	 8.82237269E-01	-6.20261009E+00
1.65000000E+09	 8.82008545E-01	-6.19886949E+00
1.65500000E+09	 8.81965480E-01	-6.20735326E+00
1.66000000E+09	 8.81541917E-01	-6.20967299E+00
1.66500000E+09	 8.81327592E-01	-6.22215383E+00
1.67000000E+09	 8.80955899E-01	-6.22237522E+00
1.67500000E+09	 8.80855056E-01	-6.23362678E+00
1.68000000E+09	 8.80363090E-01	-6.23408269E+00
1.68500000E+09	 8.80192296E-01	-6.23645466E+00
1.69000000E+09	 8.80042783E-01	-6.24504478E+00
1.69500000E+09	 8.79642333E-01	-6.24873458E+00
1.70000000E+09	 8.79493096E-01	-6.24679165E+00
1.70500000E+09	 8.79216934E-01	-6.25411741E+00
1.71000000E+09	 8.78780469E-01	-6.26505009E+00
1.71500000E+09	 8.78558385E-01	-6.25836384E+00
1.72000000E+09	 8.78451011E-01	-6.27038831E+00
1.72500000E+09	 8.78184754E-01	-6.27612821E+00
1.73000000E+09	 8.77955173E-01	-6.27406239E+00
1.73500000E+09	 8.77672241E-01	-6.28852851E+00
1.74000000E+09	 8.77398259E-01	-6.28558348E+00
1.74500000E+09	 8.77098748E-01	-6.29018993E+00
1.75000000E+09	 8.76944736E-01	-6.30136132E+00
1.75500000E+09	 8.76515086E-01	-6.30513759E+00
1.76000000E+09	 8.76198024E-01	-6.30379582E+00
1.76500000E+09	 8.75952816E-01	-6.31548997E+00
1.77000000E+09	 8.75678613E-01	-6.33159766E+00
1.77500000E+09	 8.75363319E-01	-6.33421975E+00
1.78000000E+09	 8.75102808E-01	-6.34591621E+00
1.78500000E+09	 8.74865875E-01	-6.34438226E+00
1.79000000E+09	 8.74648673E-01	-6.34964574E+00
1.79500000E+09	 8.74475200E-01	-6.36398720E+00
1.80000000E+09	 8.74146976E-01	-6.36438574E+00
1.80500000E+09	 8.73921438E-01	-6.35778443E+00
1.81000000E+09	 8.73672577E-01	-6.37390784E+00
1.81500000E+09	 8.73378029E-01	-6.38388526E+00
1.82000000E+09	 8.73255352E-01	-6.39966206E+00
1.82500000E+09	 8.73037704E-01	-6.41066820E+00
1.83000000E+09	 8.72794698E-01	-6.41341405E+00
1.83500000E+09	 8.72476996E-01	-6.41695863E+00
1.84000000E+09	 8.72238189E-01	-6.43160597E+00
1.84500000E+09	 8.71803978E-01	-6.42380110E+00
1.85000000E+09	 8.71698021E-01	-6.45209920E+00
1.85500000E+09	 8.71477121E-01	-6.45209395E+00
1.86000000E+09	 8.71379882E-01	-6.46526092E+00
1.86500000E+09	 8.70981250E-01	-6.46526545E+00
1.87000000E+09	 8.70717281E-01	-6.47659887E+00
1.87500000E+09	 8.70435483E-01	-6.48006306E+00
1.88000000E+09	 8.70320947E-01	-6.49016933E+00
1.88500000E+09	 8.70124856E-01	-6.51041039E+00
1.89000000E+09	 8.69777344E-01	-6.50275389E+00
1.89500000E+09	 8.69780322E-01	-6.52468476E+00
1.90000000E+09	 8.69353955E-01	-6.52434960E+00
1.90500000E+09	 8.69076909E-01	-6.53590404E+00
1.91000000E+09	 8.68701886E-01	-6.55112570E+00
1.91500000E+09	 8.68647757E-01	-6.57096326E+00
1.92000000E+09	 8.68211617E-01	-6.56959499E+00
1.92500000E+09	 8.68089245E-01	-6.57226713E+00
1.93000000E+09	 8.67964899E-01	-6.58217727E+00
1.93500000E+09	 8.67718374E-01	-6.60153043E+00
1.94000000E+09	 8.67590966E-01	-6.60732464E+00
1.94500000E+09	 8.67187175E-01	-6.62711698E+00
1.95000000E+09	 8.67072741E-01	-6.62757624E+00
1.95500000E+09	 8.66785360E-01	-6.63014052E+00
1.96000000E+09	 8.66465724E-01	-6.65532945E+00
1.96500000E+09	 8.66427865E-01	-6.66427731E+00
1.97000000E+09	 8.66151839E-01	-6.67597154E+00
1.97500000E+09	 8.65976946E-01	-6.69929837E+00
1.98000000E+09	 8.65755011E-01	-6.70863760E+00
1.98500000E+09	 8.65613334E-01	-6.72295541E+00
1.99000000E+09	 8.65264545E-01	-6.72880964E+00
1.99500000E+09	 8.65151831E-01	-6.74712555E+00
2.00000000E+09	 8.64889809E-01	-6.76277317E+00
2.00500000E+09	 8.64770760E-01	-6.77971669E+00
2.01000000E+09	 8.64441122E-01	-6.79366062E+00
2.01500000E+09	 8.64375881E-01	-6.80904622E+00
2.02000000E+09	 8.64133190E-01	-6.82272371E+00
2.02500000E+09	 8.63981573E-01	-6.83674949E+00
2.03000000E+09	 8.63756637E-01	-6.86122255E+00
2.03500000E+09	 8.63546771E-01	-6.86709153E+00
2.04000000E+09	 8.63407646E-01	-6.88118154E+00
2.04500000E+09	 8.63264647E-01	-6.89640748E+00
2.05000000E+09	 8.63019698E-01	-6.91555654E+00
2.05500000E+09	 8.62898903E-01	-6.92905902E+00
2.06000000E+09	 8.62716731E-01	-6.94130477E+00
2.06500000E+09	 8.62634616E-01	-6.96638448E+00
2.07000000E+09	 8.62322301E-01	-6.98513713E+00
2.07500000E+09	 8.62180815E-01	-7.00128373E+00
2.08000000E+09	 8.61970818E-01	-7.01788035E+00
2.08500000E+09	 8.61791085E-01	-7.04078081E+00
2.09000000E+09	 8.61652738E-01	-7.05037113E+00
2.09500000E+09	 8.61503258E-01	-7.07201109E+00
2.10000000E+09	 8.61441887E-01	-7.09536889E+00
2.10500000E+09	 8.61452563E-01	-7.11250675E+00
2.11000000E+09	 8.61230386E-01	-7.13328736E+00
2.11500000E+09	 8.61009354E-01	-7.15096904E+00
2.12000000E+09	 8.60986264E-01	-7.16156604E+00
2.12500000E+09	 8.60836308E-01	-7.17586373E+00
2.13000000E+09	 8.60707155E-01	-7.19640531E+00
2.13500000E+09	 8.60618617E-01	-7.21774106E+00
2.14000000E+09	 8.60520597E-01	-7.23884746E+00
2.14500000E+09	 8.60412227E-01	-7.26033323E+00
2.15000000E+09	 8.60339707E-01	-7.28408302E+00
2.15500000E+09	 8.60336040E-01	-7.30494389E+00
2.16000000E+09	 8.60162127E-01	-7.32812480E+00
2.16500000E+09	 8.60067985E-01	-7.34839648E+00
2.17000000E+09	 8.59956182E-01	-7.36005710E+00
2.17500000E+09	 8.60001663E-01	-7.39056624E+00
2.18000000E+09	 8.59844585E-01	-7.41656503E+00
2.18500000E+09	 8.59749104E-01	-7.44108565E+00
2.19000000E+09	 8.59790267E-01	-7.48513453E+00
2.19500000E+09	 8.59575520E-01	-7.48204235E+00
2.20000000E+09	 8.59592567E-01	-7.52450484E+00
2.20500000E+09	 8.59541409E-01	-7.53600188E+00
2.21000000E+09	 8.59394030E-01	-7.55500230E+00
2.21500000E+09	 8.59507521E-01	-7.58757997E+00
2.22000000E+09	 8.59291592E-01	-7.60663496E+00
2.22500000E+09	 8.59329223E-01	-7.63369478E+00
2.23000000E+09	 8.59489746E-01	-7.66987308E+00
2.23500000E+09	 8.59209328E-01	-7.68316368E+00
2.24000000E+09	 8.59113198E-01	-7.70877441E+00
2.24500000E+09	 8.59212940E-01	-7.73628071E+00
2.25000000E+09	 8.59129476E-01	-7.76213511E+00
2.25500000E+09	 8.59287465E-01	-7.78230708E+00
2.26000000E+09	 8.59219125E-01	-7.81808852E+00
2.26500000E+09	 8.59243553E-01	-7.83731258E+00
2.27000000E+09	 8.59196607E-01	-7.87464829E+00
2.27500000E+09	 8.59274281E-01	-7.88720529E+00
2.28000000E+09	 8.59408595E-01	-7.92464628E+00
2.28500000E+09	 8.59358103E-01	-7.94319351E+00
2.29000000E+09	 8.59559124E-01	-7.96546829E+00
2.29500000E+09	 8.59376308E-01	-7.98969417E+00
2.30000000E+09	 8.59471796E-01	-8.01824319E+00
2.30500000E+09	 8.59454144E-01	-8.03727548E+00
2.31000000E+09	 8.59441852E-01	-8.05912678E+00
2.31500000E+09	 8.59479879E-01	-8.09169925E+00
2.32000000E+09	 8.59500437E-01	-8.11095893E+00
2.32500000E+09	 8.59575531E-01	-8.14451509E+00
2.33000000E+09	 8.59626189E-01	-8.17139487E+00
2.33500000E+09	 8.59700957E-01	-8.19792941E+00
2.34000000E+09	 8.59696251E-01	-8.22887635E+00
2.34500000E+09	 8.59768232E-01	-8.25592227E+00
2.35000000E+09	 8.59790625E-01	-8.28043222E+00
2.35500000E+09	 8.59857368E-01	-8.30650140E+00
2.36000000E+09	 8.59911100E-01	-8.33512444E+00
2.36500000E+09	 8.59980505E-01	-8.36256811E+00
2.37000000E+09	 8.60023835E-01	-8.38109375E+00
2.37500000E+09	 8.60143507E-01	-8.42120429E+00
2.38000000E+09	 8.60286990E-01	-8.44508452E+00
2.38500000E+09	 8.60475087E-01	-8.46971795E+00
2.39000000E+09	 8.60492323E-01	-8.50565036E+00
2.39500000E+09	 8.60680993E-01	-8.54121638E+00
2.40000000E+09	 8.60691728E-01	-8.56241658E+00
2.40500000E+09	 8.60944852E-01	-8.59211956E+00
2.41000000E+09	 8.61177392E-01	-8.61745877E+00
2.41500000E+09	 8.61257370E-01	-8.64947026E+00
2.42000000E+09	 8.61341904E-01	-8.66277678E+00
2.42500000E+09	 8.61589558E-01	-8.69869222E+00
2.43000000E+09	 8.61575957E-01	-8.72395339E+00
2.43500000E+09	 8.61748833E-01	-8.73878376E+00
2.44000000E+09	 8.61993973E-01	-8.77886884E+00
2.44500000E+09	 8.62100105E-01	-8.80037994E+00
2.45000000E+09	 8.62569439E-01	-8.83465039E+00
2.45500000E+09	 8.62409435E-01	-8.85935760E+00
2.46000000E+09	 8.62797443E-01	-8.88279282E+00
2.46500000E+09	 8.63000929E-01	-8.91411375E+00
2.47000000E+09	 8.63308153E-01	-8.93799852E+00
2.47500000E+09	 8.63468836E-01	-8.96063575E+00
2.48000000E+09	 8.63529820E-01	-8.99244318E+00
2.48500000E+09	 8.63710011E-01	-9.00965753E+00
2.49000000E+09	 8.64048295E-01	-9.03628362E+00
2.49500000E+09	 8.64235662E-01	-9.06794288E+00
2.50000000E+09	 8.64683956E-01	-9.09430481E+00
2.50500000E+09	 8.64701301E-01	-9.10714836E+00
2.51000000E+09	 8.65068901E-01	-9.13461261E+00
2.51500000E+09	 8.65256421E-01	-9.15722167E+00
2.52000000E+09	 8.65543399E-01	-9.18221289E+00
2.52500000E+09	 8.65706118E-01	-9.20248852E+00
2.53000000E+09	 8.66122662E-01	-9.22774924E+00
2.53500000E+09	 8.66364369E-01	-9.26029619E+00
2.54000000E+09	 8.66512654E-01	-9.27295275E+00
2.54500000E+09	 8.66751521E-01	-9.29829995E+00
2.55000000E+09	 8.66914335E-01	-9.31742975E+00
2.55500000E+09	 8.67292985E-01	-9.33673616E+00
2.56000000E+09	 8.67389883E-01	-9.36553978E+00
2.56500000E+09	 8.67515657E-01	-9.38601432E+00
2.57000000E+09	 8.67756455E-01	-9.41382567E+00
2.57500000E+09	 8.68045017E-01	-9.43579257E+00
2.58000000E+09	 8.68215304E-01	-9.46317565E+00
2.58500000E+09	 8.68438162E-01	-9.48010381E+00
2.59000000E+09	 8.68785964E-01	-9.50167888E+00
2.59500000E+09	 8.69115183E-01	-9.52974465E+00
2.60000000E+09	 8.69380795E-01	-9.54573094E+00
2.60500000E+09	 8.69705093E-01	-9.57714789E+00
2.61000000E+09	 8.69857112E-01	-9.59635026E+00
2.61500000E+09	 8.70303045E-01	-9.61442662E+00
2.62000000E+09	 8.70530799E-01	-9.64381165E+00
2.62500000E+09	 8.70838743E-01	-9.66250367E+00
2.63000000E+09	 8.71039197E-01	-9.69221007E+00
2.63500000E+09	 8.71485442E-01	-9.70631653E+00
2.64000000E+09	 8.71674926E-01	-9.72653568E+00
2.64500000E+09	 8.71963799E-01	-9.74954172E+00
2.65000000E+09	 8.72394332E-01	-9.75943940E+00
2.65500000E+09	 8.72685353E-01	-9.78545274E+00
2.66000000E+09	 8.73035479E-01	-9.79395638E+00
2.66500000E+09	 8.73227124E-01	-9.81372893E+00
2.67000000E+09	 8.73572161E-01	-9.82523906E+00
2.67500000E+09	 8.73857752E-01	-9.84716820E+00
2.68000000E+09	 8.74023188E-01	-9.85544986E+00
2.68500000E+09	 8.74286726E-01	-9.87639418E+00
2.69000000E+09	 8.74588053E-01	-9.89796907E+00
2.69500000E+09	 8.74807493E-01	-9.92889397E+00
2.70000000E+09	 8.75103644E-01	-9.93952323E+00
2.70500000E+09	 8.75340840E-01	-9.94669052E+00
2.71000000E+09	 8.75567950E-01	-9.97834247E+00
2.71500000E+09	 8.76016897E-01	-1.00072876E+01
2.72000000E+09	 8.76435291E-01	-1.00150988E+01
2.72500000E+09	 8.76623932E-01	-1.00267013E+01
2.73000000E+09	 8.76854890E-01	-1.00476153E+01
2.73500000E+09	 8.77462322E-01	-1.00637668E+01
2.74000000E+09	 8.77490537E-01	-1.00902104E+01
2.74500000E+09	 8.78101581E-01	-1.01021321E+01
2.75000000E+09	 8.78252102E-01	-1.00986046E+01
2.75500000E+09	 8.78806648E-01	-1.01321372E+01
2.76000000E+09	 8.79088238E-01	-1.01501446E+01
2.76500000E+09	 8.79569692E-01	-1.01602571E+01
2.77000000E+09	 8.79808891E-01	-1.01847720E+01
2.77500000E+09	 8.80310216E-01	-1.01799460E+01
2.78000000E+09	 8.80492019E-01	-1.02041309E+01
2.78500000E+09	 8.80833477E-01	-1.02050041E+01
2.79000000E+09	 8.81273603E-01	-1.02442905E+01
2.79500000E+09	 8.81657728E-01	-1.02501243E+01
2.80000000E+09	 8.81994071E-01	-1.02510359E+01
2.80500000E+09	 8.82307964E-01	-1.02486270E+01
2.81000000E+09	 8.82610235E-01	-1.02611639E+01
2.81500000E+09	 8.82846180E-01	-1.02620631E+01
2.82000000E+09	 8.83207643E-01	-1.02608530E+01
2.82500000E+09	 8.83464785E-01	-1.02778889E+01
2.83000000E+09	 8.83771062E-01	-1.02810265E+01
2.83500000E+09	 8.83929403E-01	-1.02866025E+01
2.84000000E+09	 8.84262327E-01	-1.02836614E+01
2.84500000E+09	 8.84612071E-01	-1.02840144E+01
2.85000000E+09	 8.84886019E-01	-1.02887502E+01
2.85500000E+09	 8.85317145E-01	-1.02952454E+01
2.86000000E+09	 8.85280585E-01	-1.03066516E+01
2.86500000E+09	 8.85626449E-01	-1.03072218E+01
2.87000000E+09	 8.86006889E-01	-1.03218687E+01
2.87500000E+09	 8.86334675E-01	-1.03415312E+01
2.88000000E+09	 8.86618723E-01	-1.03443895E+01
2.88500000E+09	 8.86928275E-01	-1.03592302E+01
2.89000000E+09	 8.87302964E-01	-1.03515677E+01
2.89500000E+09	 8.87730466E-01	-1.03593489E+01
2.90000000E+09	 8.88024965E-01	-1.03631191E+01
2.90500000E+09	 8.88407445E-01	-1.03609418E+01
2.91000000E+09	 8.88702181E-01	-1.03573779E+01
2.91500000E+09	 8.89029640E-01	-1.03558511E+01
2.92000000E+09	 8.89221030E-01	-1.03508214E+01
2.92500000E+09	 8.89439431E-01	-1.03486145E+01
2.93000000E+09	 8.89768818E-01	-1.03376464E+01
2.93500000E+09	 8.89995481E-01	-1.03367344E+01
2.94000000E+09	 8.90029427E-01	-1.03282254E+01
2.94500000E+09	 8.90233154E-01	-1.03215138E+01
2.95000000E+09	 8.90348101E-01	-1.03245520E+01
2.95500000E+09	 8.90554611E-01	-1.03188608E+01
2.96000000E+09	 8.90586426E-01	-1.03193365E+01
2.96500000E+09	 8.90692061E-01	-1.03231307E+01
2.97000000E+09	 8.90897277E-01	-1.03202405E+01
2.97500000E+09	 8.90995907E-01	-1.03237108E+01
2.98000000E+09	 8.91239712E-01	-1.03175821E+01
2.98500000E+09	 8.91354763E-01	-1.03240526E+01
2.99000000E+09	 8.91450895E-01	-1.03151887E+01
2.99500000E+09	 8.91560932E-01	-1.03244738E+01
3.00000000E+09	 8.91748224E-01	-1.03320576E+01
3.00500000E+09	 8.91790231E-01	-1.02681129E+01
3.01000000E+09	 8.91940029E-01	-1.02865245E+01
3.01500000E+09	 8.92085713E-01	-1.02838667E+01
3.02000000E+09	 8.92483905E-01	-1.03083319E+01
3.02500000E+09	 8.92358491E-01	-1.03012517E+01
3.03000000E+09	 8.92615957E-01	-1.02959443E+01
3.03500000E+09	 8.92836493E-01	-1.03174371E+01
3.04000000E+09	 8.93240678E-01	-1.02975393E+01
3.04500000E+09	 8.93384072E-01	-1.03129784E+01
3.05000000E+09	 8.94380663E-01	-1.03259363E+01
3.05500000E+09	 8.93782736E-01	-1.03200927E+01
3.06000000E+09	 8.94362479E-01	-1.02963634E+01
3.06500000E+09	 8.94737389E-01	-1.03065134E+01
3.07000000E+09	 8.94937904E-01	-1.02718057E+01
3.07500000E+09	 8.95380393E-01	-1.02814997E+01
3.08000000E+09	 8.95711075E-01	-1.02451912E+01
3.08500000E+09	 8.96015883E-01	-1.02130675E+01
3.09000000E+09	 8.96204359E-01	-1.01992055E+01
3.09500000E+09	 8.96674794E-01	-1.01808686E+01
3.10000000E+09	 8.96518446E-01	-1.01504309E+01
3.10500000E+09	 8.96550750E-01	-1.01297952E+01
3.11000000E+09	 8.96591499E-01	-1.01088310E+01
3.11500000E+09	 8.96633730E-01	-1.00654319E+01
3.12000000E+09	 8.96647295E-01	-1.00481836E+01
3.12500000E+09	 8.96385466E-01	-1.00306630E+01
3.13000000E+09	 8.96247473E-01	-1.00151588E+01
3.13500000E+09	 8.96242029E-01	-9.97715205E+00
3.14000000E+09	 8.96116542E-01	-9.98107867E+00
3.14500000E+09	 8.95899111E-01	-9.96820804E+00
3.15000000E+09	 8.96064498E-01	-9.95219964E+00
3.15500000E+09	 8.95779504E-01	-9.93219584E+00
3.16000000E+09	 8.95538197E-01	-9.93405052E+00
3.16500000E+09	 8.95658209E-01	-9.92750082E+00
3.17000000E+09	 8.95569099E-01	-9.91838290E+00
3.17500000E+09	 8.95515731E-01	-9.91222678E+00
3.18000000E+09	 8.95592735E-01	-9.92240427E+00
3.18500000E+09	 8.95722944E-01	-9.90914827E+00
3.19000000E+09	 8.95779275E-01	-9.90589856E+00
3.19500000E+09	 8.95940748E-01	-9.90943948E+00
3.20000000E+09	 8.96248719E-01	-9.89708369E+00
3.20500000E+09	 8.96310340E-01	-9.87483670E+00
3.21000000E+09	 8.96532696E-01	-9.86921409E+00
3.21500000E+09	 8.96745332E-01	-9.84148880E+00
3.22000000E+09	 8.96834001E-01	-9.80861380E+00
3.22500000E+09	 8.96810641E-01	-9.78298075E+00
3.23000000E+09	 8.96840682E-01	-9.74523478E+00
3.23500000E+09	 8.96821624E-01	-9.72359323E+00
3.24000000E+09	 8.96714858E-01	-9.69760540E+00
3.24500000E+09	 8.96722063E-01	-9.69370470E+00
3.25000000E+09	 8.96422251E-01	-9.66492039E+00
3.25500000E+09	 8.96364859E-01	-9.62720277E+00
3.26000000E+09	 8.96308375E-01	-9.60236504E+00
3.26500000E+09	 8.96110641E-01	-9.58888403E+00
3.27000000E+09	 8.95884937E-01	-9.57426563E+00
3.27500000E+09	 8.95623586E-01	-9.56171651E+00
3.28000000E+09	 8.95422669E-01	-9.52183350E+00
3.28500000E+09	 8.95477598E-01	-9.52586858E+00
3.29000000E+09	 8.95460599E-01	-9.50498756E+00
3.29500000E+09	 8.94831925E-01	-9.46363849E+00
3.30000000E+09	 8.94639793E-01	-9.46209716E+00
3.30500000E+09	 8.94563127E-01	-9.47686119E+00
3.31000000E+09	 8.94650837E-01	-9.44660429E+00
3.31500000E+09	 8.94432294E-01	-9.43059144E+00
3.32000000E+09	 8.94328604E-01	-9.42557466E+00
3.32500000E+09	 8.93762775E-01	-9.39760811E+00
3.33000000E+09	 8.93837045E-01	-9.39346910E+00
3.33500000E+09	 8.93579926E-01	-9.40021954E+00
3.34000000E+09	 8.93470723E-01	-9.37242039E+00
3.34500000E+09	 8.93632277E-01	-9.34804539E+00
3.35000000E+09	 8.93209082E-01	-9.34084938E+00
3.35500000E+09	 8.93387458E-01	-9.31816170E+00
3.36000000E+09	 8.93373210E-01	-9.31744831E+00
3.36500000E+09	 8.93179009E-01	-9.31821535E+00
3.37000000E+09	 8.93370031E-01	-9.27793718E+00
3.37500000E+09	 8.92923891E-01	-9.27467640E+00
3.38000000E+09	 8.92739606E-01	-9.25872789E+00
3.38500000E+09	 8.92968831E-01	-9.23879687E+00
3.39000000E+09	 8.92861875E-01	-9.21249109E+00
3.39500000E+09	 8.92633022E-01	-9.20159862E+00
3.40000000E+09	 8.92324571E-01	-9.19023767E+00
3.40500000E+09	 8.92342743E-01	-9.15812883E+00
3.41000000E+09	 8.92634836E-01	-9.12662225E+00
3.41500000E+09	 8.91947067E-01	-9.10990201E+00
3.42000000E+09	 8.92151170E-01	-9.08955009E+00
3.42500000E+09	 8.91704415E-01	-9.07578865E+00
3.43000000E+09	 8.91514530E-01	-9.05421098E+00
3.43500000E+09	 8.91403739E-01	-9.03183179E+00
3.44000000E+09	 8.91349382E-01	-8.99930864E+00
3.44500000E+09	 8.90867878E-01	-8.98793191E+00
3.45000000E+09	 8.90866774E-01	-8.95765838E+00
3.45500000E+09	 8.90540916E-01	-8.92370634E+00
3.46000000E+09	 8.90265631E-01	-8.90530504E+00
3.46500000E+09	 8.89955144E-01	-8.87482443E+00
3.47000000E+09	 8.89662686E-01	-8.85636889E+00
3.47500000E+09	 8.89328607E-01	-8.83388552E+00
3.48000000E+09	 8.88854768E-01	-8.81419266E+00
3.48500000E+09	 8.88367514E-01	-8.79269152E+00
3.49000000E+09	 8.87884315E-01	-8.78317418E+00
3.49500000E+09	 8.87477055E-01	-8.77413784E+00
3.50000000E+09	 8.87033811E-01	-8.76500528E+00
3.50500000E+09	 8.86675510E-01	-8.74597917E+00
3.51000000E+09	 8.86280854E-01	-8.74864008E+00
3.51500000E+09	 8.86082482E-01	-8.73880408E+00
3.52000000E+09	 8.85898831E-01	-8.73636471E+00
3.52500000E+09	 8.85490295E-01	-8.73854895E+00
3.53000000E+09	 8.85311418E-01	-8.74581757E+00
3.53500000E+09	 8.85384137E-01	-8.75604911E+00
3.54000000E+09	 8.85277567E-01	-8.72702744E+00
3.54500000E+09	 8.85534191E-01	-8.71563367E+00
3.55000000E+09	 8.85545387E-01	-8.70432784E+00
3.55500000E+09	 8.85421389E-01	-8.66537483E+00
3.56000000E+09	 8.85478649E-01	-8.62782418E+00
3.56500000E+09	 8.85367242E-01	-8.58183689E+00
3.57000000E+09	 8.84908055E-01	-8.54955013E+00
3.57500000E+09	 8.85937703E-01	-8.52996354E+00
3.58000000E+09	 8.84669061E-01	-8.45831295E+00
3.58500000E+09	 8.83305408E-01	-8.38843853E+00
3.59000000E+09	 8.82600241E-01	-8.35014954E+00
3.59500000E+09	 8.81943498E-01	-8.34186715E+00
3.60000000E+09	 8.80696540E-01	-8.34096353E+00
3.60500000E+09	 8.79952921E-01	-8.34272602E+00
3.61000000E+09	 8.78941048E-01	-8.36380501E+00
3.61500000E+09	 8.78536460E-01	-8.35511482E+00
3.62000000E+09	 8.78305544E-01	-8.40148557E+00
3.62500000E+09	 8.77530697E-01	-8.39093019E+00
3.63000000E+09	 8.77517187E-01	-8.43040293E+00
3.63500000E+09	 8.77565217E-01	-8.44280849E+00
3.64000000E+09	 8.77670189E-01	-8.44872275E+00
3.64500000E+09	 8.77554616E-01	-8.42941566E+00
3.65000000E+09	 8.77568154E-01	-8.41581034E+00
3.65500000E+09	 8.77372155E-01	-8.43014081E+00
3.66000000E+09	 8.77245270E-01	-8.38630306E+00
3.66500000E+09	 8.76657683E-01	-8.39302523E+00
3.67000000E+09	 8.76712954E-01	-8.34771278E+00
3.67500000E+09	 8.76716645E-01	-8.35630087E+00
3.68000000E+09	 8.76351361E-01	-8.33773082E+00
3.68500000E+09	 8.75987424E-01	-8.29789884E+00
3.69000000E+09	 8.75788837E-01	-8.28404471E+00
3.69500000E+09	 8.75730290E-01	-8.27589639E+00
3.70000000E+09	 8.75171576E-01	-8.25741879E+00
3.70500000E+09	 8.74948784E-01	-8.24559492E+00
3.71000000E+09	 8.74612753E-01	-8.20505369E+00
3.71500000E+09	 8.74071901E-01	-8.17473946E+00
3.72000000E+09	 8.73608355E-01	-8.13235499E+00
3.72500000E+09	 8.72963498E-01	-8.11932755E+00
3.73000000E+09	 8.72305913E-01	-8.06575314E+00
3.73500000E+09	 8.71440063E-01	-8.05112759E+00
3.74000000E+09	 8.70307609E-01	-8.04269855E+00
3.74500000E+09	 8.69443933E-01	-8.05469572E+00
3.75000000E+09	 8.68483430E-01	-8.06148276E+00
3.75500000E+09	 8.67522375E-01	-8.08874248E+00
3.76000000E+09	 8.66841001E-01	-8.12406830E+00
3.76500000E+09	 8.66422724E-01	-8.17975814E+00
3.77000000E+09	 8.66258001E-01	-8.21839188E+00
3.77500000E+09	 8.66356925E-01	-8.25920177E+00
3.78000000E+09	 8.66859150E-01	-8.29104060E+00
3.78500000E+09	 8.67082212E-01	-8.28953476E+00
3.79000000E+09	 8.67253297E-01	-8.25563795E+00
3.79500000E+09	 8.67244753E-01	-8.23268384E+00
3.80000000E+09	 8.66871647E-01	-8.18570593E+00
3.80500000E+09	 8.66739945E-01	-8.16605984E+00
3.81000000E+09	 8.65814388E-01	-8.14560841E+00
3.81500000E+09	 8.65433210E-01	-8.14013715E+00
3.82000000E+09	 8.64690481E-01	-8.11518718E+00
3.82500000E+09	 8.64256461E-01	-8.07741313E+00
3.83000000E+09	 8.63425589E-01	-8.07426155E+00
3.83500000E+09	 8.62128467E-01	-8.12861885E+00
3.84000000E+09	 8.61654114E-01	-8.14145678E+00
3.84500000E+09	 8.61301589E-01	-8.12865134E+00
3.85000000E+09	 8.60627954E-01	-8.14486643E+00
3.85500000E+09	 8.60197843E-01	-8.16138840E+00
3.86000000E+09	 8.60019785E-01	-8.15822045E+00
3.86500000E+09	 8.59449009E-01	-8.18015013E+00
3.87000000E+09	 8.58931698E-01	-8.18189383E+00
3.87500000E+09	 8.58695130E-01	-8.17958433E+00
3.88000000E+09	 8.58303266E-01	-8.16541633E+00
3.88500000E+09	 8.57518273E-01	-8.20049469E+00
3.89000000E+09	 8.57014465E-01	-8.20930161E+00
3.89500000E+09	 8.56663746E-01	-8.22847666E+00
3.90000000E+09	 8.56197553E-01	-8.21400478E+00
3.90500000E+09	 8.55938363E-01	-8.23650637E+00
3.91000000E+09	 8.55228335E-01	-8.26818906E+00
3.91500000E+09	 8.54831898E-01	-8.25828458E+00
3.92000000E+09	 8.54078185E-01	-8.28633599E+00
3.92500000E+09	 8.53601526E-01	-8.30203970E+00
3.93000000E+09	 8.53138898E-01	-8.30985563E+00
3.93500000E+09	 8.52800525E-01	-8.33701275E+00
3.94000000E+09	 8.52296676E-01	-8.35622971E+00
3.94500000E+09	 8.51839722E-01	-8.36295930E+00
3.95000000E+09	 8.51324179E-01	-8.37875580E+00
3.95500000E+09	 8.50977466E-01	-8.40005504E+00
3.96000000E+09	 8.50375871E-01	-8.41175428E+00
3.96500000E+09	 8.49933277E-01	-8.44948114E+00
3.97000000E+09	 8.49429385E-01	-8.44214361E+00
3.97500000E+09	 8.48762138E-01	-8.46490797E+00
3.98000000E+09	 8.48424233E-01	-8.48607022E+00
3.98500000E+09	 8.48084850E-01	-8.51567137E+00
3.99000000E+09	 8.47506498E-01	-8.53829930E+00
3.99500000E+09	 8.46963677E-01	-8.55524430E+00
4.00000000E+09	 8.46604237E-01	-8.57868346E+00
4.00500000E+09	 8.46068904E-01	-8.61108766E+00
4.01000000E+09	 8.45548918E-01	-8.61747698E+00
4.01500000E+09	 8.45239781E-01	-8.64125916E+00
4.02000000E+09	 8.44863737E-01	-8.66993941E+00
4.02500000E+09	 8.44127462E-01	-8.68730008E+00
4.03000000E+09	 8.43764127E-01	-8.72687318E+00
4.03500000E+09	 8.43168567E-01	-8.74850653E+00
4.04000000E+09	 8.42800868E-01	-8.77324008E+00
4.04500000E+09	 8.42364602E-01	-8.80255728E+00
4.05000000E+09	 8.41922861E-01	-8.82635958E+00
4.05500000E+09	 8.41309626E-01	-8.86271821E+00
4.06000000E+09	 8.40884424E-01	-8.88633726E+00
4.06500000E+09	 8.40502929E-01	-8.92114438E+00
4.07000000E+09	 8.39965548E-01	-8.94374284E+00
4.07500000E+09	 8.39443016E-01	-8.98156421E+00
4.08000000E+09	 8.38958982E-01	-9.01609195E+00
4.08500000E+09	 8.38479826E-01	-9.03838888E+00
4.09000000E+09	 8.37935784E-01	-9.07761509E+00
4.09500000E+09	 8.37456655E-01	-9.11261973E+00
4.10000000E+09	 8.37216086E-01	-9.14884704E+00
4.10500000E+09	 8.36602170E-01	-9.18402058E+00
4.11000000E+09	 8.36291753E-01	-9.22204761E+00
4.11500000E+09	 8.35699986E-01	-9.24261175E+00
4.12000000E+09	 8.35211765E-01	-9.28700542E+00
4.12500000E+09	 8.34810876E-01	-9.32832092E+00
4.13000000E+09	 8.34201512E-01	-9.36073233E+00
4.13500000E+09	 8.33769915E-01	-9.40222864E+00
4.14000000E+09	 8.33354153E-01	-9.44031265E+00
4.14500000E+09	 8.32709960E-01	-9.47594103E+00
4.15000000E+09	 8.32346572E-01	-9.52580237E+00
4.15500000E+09	 8.32064189E-01	-9.56929314E+00
4.16000000E+09	 8.31509339E-01	-9.61602449E+00
4.16500000E+09	 8.30946108E-01	-9.67212212E+00
4.17000000E+09	 8.30610320E-01	-9.70190316E+00
4.17500000E+09	 8.30215900E-01	-9.75408548E+00
4.18000000E+09	 8.29616882E-01	-9.81218611E+00
4.18500000E+09	 8.29388059E-01	-9.86714373E+00
4.19000000E+09	 8.28825006E-01	-9.90887283E+00
4.19500000E+09	 8.28719301E-01	-9.94297965E+00
4.20000000E+09	 8.28258136E-01	-1.00140403E+01
4.20500000E+09	 8.27725723E-01	-1.00718699E+01
4.21000000E+09	 8.27272739E-01	-1.01044400E+01
4.21500000E+09	 8.27212113E-01	-1.01596932E+01
4.22000000E+09	 8.26761467E-01	-1.02224650E+01
4.22500000E+09	 8.26593244E-01	-1.02562956E+01
4.23000000E+09	 8.26059134E-01	-1.03133927E+01
4.23500000E+09	 8.25886180E-01	-1.03717160E+01
4.24000000E+09	 8.25530811E-01	-1.04195709E+01
4.24500000E+09	 8.25281994E-01	-1.05007481E+01
4.25000000E+09	 8.24734671E-01	-1.05429027E+01
4.25500000E+09	 8.24317059E-01	-1.06062476E+01
4.26000000E+09	 8.24234564E-01	-1.06489993E+01
4.26500000E+09	 8.23902565E-01	-1.07104643E+01
4.27000000E+09	 8.23641724E-01	-1.07707293E+01
4.27500000E+09	 8.23310464E-01	-1.08364058E+01
4.28000000E+09	 8.23134093E-01	-1.08901885E+01
4.28500000E+09	 8.22760229E-01	-1.09602235E+01
4.29000000E+09	 8.22704781E-01	-1.10114302E+01
4.29500000E+09	 8.22367859E-01	-1.10656566E+01
4.30000000E+09	 8.22006327E-01	-1.11400484E+01
4.30500000E+09	 8.21699437E-01	-1.12000735E+01
4.31000000E+09	 8.21626583E-01	-1.12545360E+01
4.31500000E+09	 8.21406983E-01	-1.13182272E+01
4.32000000E+09	 8.21321490E-01	-1.13881244E+01
4.32500000E+09	 8.20863861E-01	-1.14516421E+01
4.33000000E+09	 8.20856248E-01	-1.15011958E+01
4.33500000E+09	 8.20436859E-01	-1.15736579E+01
4.34000000E+09	 8.20257394E-01	-1.16284192E+01
4.34500000E+09	 8.19945898E-01	-1.17089752E+01
4.35000000E+09	 8.19916853E-01	-1.17702756E+01
4.35500000E+09	 8.19711694E-01	-1.18372548E+01
4.36000000E+09	 8.19513551E-01	-1.19139601E+01
4.36500000E+09	 8.19363096E-01	-1.19847645E+01
4.37000000E+09	 8.19095060E-01	-1.20780485E+01
4.37500000E+09	 8.18976891E-01	-1.21200851E+01
4.38000000E+09	 8.19051655E-01	-1.22063188E+01
4.38500000E+09	 8.18841393E-01	-1.22934720E+01
4.39000000E+09	 8.18898976E-01	-1.23663962E+01
4.39500000E+09	 8.18959438E-01	-1.24332673E+01
4.40000000E+09	 8.19139615E-01	-1.25235599E+01
4.40500000E+09	 8.18673908E-01	-1.25831161E+01
4.41000000E+09	 8.18957604E-01	-1.26571739E+01
4.41500000E+09	 8.19320781E-01	-1.27151412E+01
4.42000000E+09	 8.19165615E-01	-1.28061346E+01
4.42500000E+09	 8.19905241E-01	-1.28666639E+01
4.43000000E+09	 8.19501094E-01	-1.29296984E+01
4.43500000E+09	 8.19644341E-01	-1.30034611E+01
4.44000000E+09	 8.19808711E-01	-1.30521433E+01
4.44500000E+09	 8.19627946E-01	-1.31203575E+01
4.45000000E+09	 8.19729559E-01	-1.31831135E+01
4.45500000E+09	 8.20010315E-01	-1.32752216E+01
4.46000000E+09	 8.19840334E-01	-1.33207379E+01
4.46500000E+09	 8.19966710E-01	-1.34080544E+01
4.47000000E+09	 8.19943049E-01	-1.34581182E+01
4.47500000E+09	 8.20005815E-01	-1.35531427E+01
4.48000000E+09	 8.19838251E-01	-1.36327802E+01
4.48500000E+09	 8.20112157E-01	-1.37216789E+01
4.49000000E+09	 8.19890684E-01	-1.38105824E+01
4.49500000E+09	 8.20411116E-01	-1.38950389E+01
4.50000000E+09	 8.20431975E-01	-1.39775660E+01
4.50500000E+09	 8.21073136E-01	-1.40540679E+01
4.51000000E+09	 8.21497944E-01	-1.41255589E+01
4.51500000E+09	 8.21934171E-01	-1.42138178E+01
4.52000000E+09	 8.22407697E-01	-1.42927923E+01
4.52500000E+09	 8.23138140E-01	-1.43600553E+01
4.53000000E+09	 8.23343042E-01	-1.44224239E+01
4.53500000E+09	 8.23992110E-01	-1.44674028E+01
4.54000000E+09	 8.24302082E-01	-1.45521185E+01
4.54500000E+09	 8.24806800E-01	-1.46013609E+01
4.55000000E+09	 8.25190657E-01	-1.46675503E+01
4.55500000E+09	 8.25598181E-01	-1.47367859E+01
4.56000000E+09	 8.26122810E-01	-1.48050480E+01
4.56500000E+09	 8.26246698E-01	-1.48539500E+01
4.57000000E+09	 8.27040776E-01	-1.49129358E+01
4.57500000E+09	 8.27452867E-01	-1.49708396E+01
4.58000000E+09	 8.27869323E-01	-1.50310165E+01
4.58500000E+09	 8.28224195E-01	-1.50916889E+01
4.59000000E+09	 8.28738764E-01	-1.51421882E+01
4.59500000E+09	 8.29158745E-01	-1.52079708E+01
4.60000000E+09	 8.29578088E-01	-1.52709115E+01
4.60500000E+09	 8.30078344E-01	-1.53252282E+01
4.61000000E+09	 8.30622118E-01	-1.53877386E+01
4.61500000E+09	 8.30938630E-01	-1.54483022E+01
4.62000000E+09	 8.31421483E-01	-1.55128948E+01
4.62500000E+09	 8.32056666E-01	-1.55675749E+01
4.63000000E+09	 8.32549702E-01	-1.56280144E+01
4.63500000E+09	 8.33111843E-01	-1.56877897E+01
4.64000000E+09	 8.33668274E-01	-1.57512707E+01
4.64500000E+09	 8.34277661E-01	-1.58125776E+01
4.65000000E+09	 8.34791578E-01	-1.58695151E+01
4.65500000E+09	 8.35553593E-01	-1.59361982E+01
4.66000000E+09	 8.36168383E-01	-1.59751883E+01
4.66500000E+09	 8.37048301E-01	-1.60108308E+01
4.67000000E+09	 8.37638376E-01	-1.60797152E+01
4.67500000E+09	 8.38574462E-01	-1.61364496E+01
4.68000000E+09	 8.39331934E-01	-1.61768897E+01
4.68500000E+09	 8.40221700E-01	-1.62129017E+01
4.69000000E+09	 8.40780062E-01	-1.62705042E+01
4.69500000E+09	 8.41814100E-01	-1.63054705E+01
4.70000000E+09	 8.42365836E-01	-1.63313208E+01
4.70500000E+09	 8.44142744E-01	-1.64023988E+01
4.71000000E+09	 8.44498298E-01	-1.64220745E+01
4.71500000E+09	 8.44771883E-01	-1.64521850E+01
4.72000000E+09	 8.45894881E-01	-1.64928873E+01
4.72500000E+09	 8.46601292E-01	-1.64941162E+01
4.73000000E+09	 8.47291783E-01	-1.65181159E+01
4.73500000E+09	 8.48037606E-01	-1.65679724E+01
4.74000000E+09	 8.48680947E-01	-1.65961979E+01
4.74500000E+09	 8.49108440E-01	-1.66265382E+01
4.75000000E+09	 8.50072912E-01	-1.66798672E+01
4.75500000E+09	 8.50654226E-01	-1.67120908E+01
4.76000000E+09	 8.51654963E-01	-1.67451577E+01
4.76500000E+09	 8.52559845E-01	-1.67941059E+01
4.77000000E+09	 8.53348773E-01	-1.68124308E+01
4.77500000E+09	 8.54371197E-01	-1.68763387E+01
4.78000000E+09	 8.55479519E-01	-1.68915805E+01
4.78500000E+09	 8.56642537E-01	-1.69059133E+01
4.79000000E+09	 8.57495762E-01	-1.69211033E+01
4.79500000E+09	 8.58667315E-01	-1.69340694E+01
4.80000000E+09	 8.59839645E-01	-1.69581694E+01
4.80500000E+09	 8.60805541E-01	-1.69589346E+01
4.81000000E+09	 8.61710349E-01	-1.69615480E+01
4.81500000E+09	 8.62693579E-01	-1.69526900E+01
4.82000000E+09	 8.63482705E-01	-1.69489334E+01
4.82500000E+09	 8.64250224E-01	-1.69352315E+01
4.83000000E+09	 8.65133444E-01	-1.69487287E+01
4.83500000E+09	 8.66005624E-01	-1.69469249E+01
4.84000000E+09	 8.66745499E-01	-1.69393146E+01
4.84500000E+09	 8.67403066E-01	-1.69605549E+01
4.85000000E+09	 8.68138012E-01	-1.69631989E+01
4.85500000E+09	 8.68905068E-01	-1.69506441E+01
4.86000000E+09	 8.69582306E-01	-1.69516530E+01
4.86500000E+09	 8.70489502E-01	-1.69501788E+01
4.87000000E+09	 8.71258818E-01	-1.69524138E+01
4.87500000E+09	 8.72023065E-01	-1.69497471E+01
4.88000000E+09	 8.72763061E-01	-1.69517311E+01
4.88500000E+09	 8.73340944E-01	-1.68634093E+01
4.89000000E+09	 8.74371510E-01	-1.69442176E+01
4.89500000E+09	 8.75472299E-01	-1.69219044E+01
4.90000000E+09	 8.76115314E-01	-1.69065292E+01
4.90500000E+09	 8.76807767E-01	-1.69057029E+01
4.91000000E+09	 8.77552596E-01	-1.69007036E+01
4.91500000E+09	 8.78430241E-01	-1.68967649E+01
4.92000000E+09	 8.79358741E-01	-1.68955936E+01
4.92500000E+09	 8.79946870E-01	-1.68678877E+01
4.93000000E+09	 8.80842900E-01	-1.68637191E+01
4.93500000E+09	 8.81393927E-01	-1.68291555E+01
4.94000000E+09	 8.82379042E-01	-1.68131809E+01
4.94500000E+09	 8.83306079E-01	-1.68164402E+01
4.95000000E+09	 8.83996192E-01	-1.67863357E+01
4.95500000E+09	 8.84931283E-01	-1.67733000E+01
4.96000000E+09	 8.85481538E-01	-1.67667551E+01
4.96500000E+09	 8.86349921E-01	-1.67197475E+01
4.97000000E+09	 8.87179535E-01	-1.67151058E+01
4.97500000E+09	 8.87545649E-01	-1.66694093E+01
4.98000000E+09	 8.88637965E-01	-1.66636949E+01
4.98500000E+09	 8.89010039E-01	-1.66660948E+01
4.99000000E+09	 8.90054792E-01	-1.66120988E+01
4.99500000E+09	 8.91079172E-01	-1.65875918E+01
5.00000000E+09	 8.91866950E-01	-1.65819827E+01
5.00500000E+09	 8.92721379E-01	-1.65311165E+01
5.01000000E+09	 8.93321078E-01	-1.65141816E+01
5.01500000E+09	 8.93978401E-01	-1.64792063E+01
5.02000000E+09	 8.94439749E-01	-1.64368452E+01
5.02500000E+09	 8.95675892E-01	-1.63861764E+01
5.03000000E+09	 8.96494740E-01	-1.63625331E+01
5.03500000E+09	 8.97091343E-01	-1.63167485E+01
5.04000000E+09	 8.97804715E-01	-1.62566763E+01
5.04500000E+09	 8.98596239E-01	-1.62202533E+01
5.05000000E+09	 8.98954449E-01	-1.61875064E+01
5.05500000E+09	 9.00263571E-01	-1.61199481E+01
5.06000000E+09	 9.00256939E-01	-1.60805566E+01
5.06500000E+09	 9.00554074E-01	-1.60171362E+01
5.07000000E+09	 9.01226538E-01	-1.59983284E+01
5.07500000E+09	 9.01845863E-01	-1.59374901E+01
5.08000000E+09	 9.02166436E-01	-1.58995447E+01
5.08500000E+09	 9.02459074E-01	-1.58393847E+01
5.09000000E+09	 9.03191617E-01	-1.58027301E+01
5.09500000E+09	 9.03148350E-01	-1.57601397E+01
5.10000000E+09	 9.03692484E-01	-1.57076672E+01
5.10500000E+09	 9.04277750E-01	-1.56575164E+01
5.11000000E+09	 9.04669114E-01	-1.56345532E+01
5.11500000E+09	 9.04927045E-01	-1.55839552E+01
5.12000000E+09	 9.05343994E-01	-1.55539122E+01
5.12500000E+09	 9.05821166E-01	-1.54939278E+01
5.13000000E+09	 9.06488566E-01	-1.54491901E+01
5.13500000E+09	 9.06782944E-01	-1.54117226E+01
5.14000000E+09	 9.07148016E-01	-1.53540991E+01
5.14500000E+09	 9.07516059E-01	-1.53052042E+01
5.15000000E+09	 9.07759554E-01	-1.52517998E+01
5.15500000E+09	 9.08030077E-01	-1.52033718E+01
5.16000000E+09	 9.08339250E-01	-1.51528074E+01
5.16500000E+09	 9.08627038E-01	-1.51000414E+01
5.17000000E+09	 9.08971938E-01	-1.50447177E+01
5.17500000E+09	 9.09264844E-01	-1.49954317E+01
5.18000000E+09	 9.09479642E-01	-1.49517441E+01
5.18500000E+09	 9.09820650E-01	-1.49020525E+01
5.19000000E+09	 9.10101588E-01	-1.48477577E+01
5.19500000E+09	 9.10537057E-01	-1.47942883E+01
5.20000000E+09	 9.10616820E-01	-1.47456953E+01
5.20500000E+09	 9.10835198E-01	-1.46975071E+01
5.21000000E+09	 9.11205257E-01	-1.46476442E+01
5.21500000E+09	 9.11328063E-01	-1.46033411E+01
5.22000000E+09	 9.11464056E-01	-1.45466901E+01
5.22500000E+09	 9.11404506E-01	-1.45033539E+01
5.23000000E+09	 9.11784705E-01	-1.44386851E+01
5.23500000E+09	 9.11867604E-01	-1.44064297E+01
5.24000000E+09	 9.11698274E-01	-1.43413291E+01
5.24500000E+09	 9.11753757E-01	-1.43040257E+01
5.25000000E+09	 9.12013732E-01	-1.42619438E+01
5.25500000E+09	 9.12043170E-01	-1.41925291E+01
5.26000000E+09	 9.12127701E-01	-1.41670613E+01
5.26500000E+09	 9.12158090E-01	-1.41391572E+01
5.27000000E+09	 9.12342007E-01	-1.40637155E+01
5.27500000E+09	 9.12457669E-01	-1.40235248E+01
5.28000000E+09	 9.12303924E-01	-1.39821839E+01
5.28500000E+09	 9.12360918E-01	-1.39101345E+01
5.29000000E+09	 9.12633846E-01	-1.38867734E+01
5.29500000E+09	 9.12809561E-01	-1.38368409E+01
5.30000000E+09	 9.13002922E-01	-1.37884605E+01
5.30500000E+09	 9.12780186E-01	-1.37205769E+01
5.31000000E+09	 9.13072796E-01	-1.36658411E+01
5.31500000E+09	 9.13195165E-01	-1.36170244E+01
5.32000000E+09	 9.13314248E-01	-1.35656050E+01
5.32500000E+09	 9.13318235E-01	-1.34991203E+01
5.33000000E+09	 9.13381384E-01	-1.34460018E+01
5.33500000E+09	 9.13405974E-01	-1.33877213E+01
5.34000000E+09	 9.13283888E-01	-1.33276091E+01
5.34500000E+09	 9.13250412E-01	-1.32829862E+01
5.35000000E+09	 9.13211864E-01	-1.32163874E+01
5.35500000E+09	 9.12873824E-01	-1.31713529E+01
5.36000000E+09	 9.12693512E-01	-1.31084487E+01
5.36500000E+09	 9.12499352E-01	-1.30531514E+01
5.37000000E+09	 9.12509615E-01	-1.30063146E+01
5.37500000E+09	 9.12306497E-01	-1.29623877E+01
5.38000000E+09	 9.12014842E-01	-1.29137693E+01
5.38500000E+09	 9.11827198E-01	-1.28595207E+01
5.39000000E+09	 9.11811652E-01	-1.28193649E+01
5.39500000E+09	 9.11620324E-01	-1.27756581E+01
5.40000000E+09	 9.11496801E-01	-1.27339619E+01
5.40500000E+09	 9.11386902E-01	-1.26844227E+01
5.41000000E+09	 9.11227735E-01	-1.26262762E+01
5.41500000E+09	 9.10874824E-01	-1.25871589E+01
5.42000000E+09	 9.10713445E-01	-1.25418686E+01
5.42500000E+09	 9.10527579E-01	-1.24945872E+01
5.43000000E+09	 9.10327415E-01	-1.24460686E+01
5.43500000E+09	 9.10169472E-01	-1.23973708E+01
5.44000000E+09	 9.09862489E-01	-1.23451251E+01
5.44500000E+09	 9.09617364E-01	-1.22922883E+01
5.45000000E+09	 9.09383235E-01	-1.22460502E+01
5.45500000E+09	 9.09057924E-01	-1.21966019E+01
5.46000000E+09	 9.08806814E-01	-1.21529592E+01
5.46500000E+09	 9.08335131E-01	-1.21063273E+01
5.47000000E+09	 9.07997881E-01	-1.20595467E+01
5.47500000E+09	 9.07512128E-01	-1.20121971E+01
5.48000000E+09	 9.07286306E-01	-1.19791028E+01
5.48500000E+09	 9.06899366E-01	-1.19420947E+01
5.49000000E+09	 9.06455829E-01	-1.19119802E+01
5.49500000E+09	 9.05882090E-01	-1.18742955E+01
5.50000000E+09	 9.05666376E-01	-1.18316411E+01
5.50500000E+09	 9.05016017E-01	-1.17816326E+01
5.51000000E+09	 9.04945872E-01	-1.17728806E+01
5.51500000E+09	 9.04691638E-01	-1.17346489E+01
5.52000000E+09	 9.04190772E-01	-1.17107406E+01
5.52500000E+09	 9.03695566E-01	-1.16526862E+01
5.53000000E+09	 9.03543409E-01	-1.16221643E+01
5.53500000E+09	 9.03041433E-01	-1.15596146E+01
5.54000000E+09	 9.02676777E-01	-1.15615375E+01
5.54500000E+09	 9.02421513E-01	-1.15337444E+01
5.55000000E+09	 9.01963169E-01	-1.14979792E+01
5.55500000E+09	 9.01460285E-01	-1.14622426E+01
5.56000000E+09	 9.00605527E-01	-1.14303337E+01
5.56500000E+09	 9.00563578E-01	-1.13839048E+01
5.57000000E+09	 8.99713845E-01	-1.13760810E+01
5.57500000E+09	 8.99154914E-01	-1.13189183E+01
5.58000000E+09	 8.98898526E-01	-1.13109752E+01
5.58500000E+09	 8.98569393E-01	-1.13022109E+01
5.59000000E+09	 8.98207177E-01	-1.12613428E+01
5.59500000E+09	 8.97683765E-01	-1.12276319E+01
5.60000000E+09	 8.96962977E-01	-1.12265934E+01
5.60500000E+09	 8.96585382E-01	-1.12022138E+01
5.61000000E+09	 8.96418115E-01	-1.11774137E+01
5.61500000E+09	 8.95510845E-01	-1.11680908E+01
5.62000000E+09	 8.95385239E-01	-1.11055619E+01
5.62500000E+09	 8.94620488E-01	-1.11203610E+01
5.63000000E+09	 8.95120830E-01	-1.10468383E+01
5.63500000E+09	 8.94130689E-01	-1.10371110E+01
5.64000000E+09	 8.93648095E-01	-1.10279952E+01
5.64500000E+09	 8.92993973E-01	-1.09848603E+01
5.65000000E+09	 8.92711031E-01	-1.09479475E+01
5.65500000E+09	 8.92048895E-01	-1.09391126E+01
5.66000000E+09	 8.91398394E-01	-1.09164516E+01
5.66500000E+09	 8.90849168E-01	-1.08893473E+01
5.67000000E+09	 8.90264937E-01	-1.08636723E+01
5.67500000E+09	 8.89756123E-01	-1.08517912E+01
5.68000000E+09	 8.89074094E-01	-1.08401172E+01
5.68500000E+09	 8.88572396E-01	-1.08221217E+01
5.69000000E+09	 8.88111299E-01	-1.08030793E+01
5.69500000E+09	 8.87440074E-01	-1.07719223E+01
5.70000000E+09	 8.86983762E-01	-1.07519946E+01
5.70500000E+09	 8.86615517E-01	-1.07217437E+01
5.71000000E+09	 8.85970510E-01	-1.07097893E+01
5.71500000E+09	 8.85360414E-01	-1.06905024E+01
5.72000000E+09	 8.84634312E-01	-1.06725184E+01
5.72500000E+09	 8.83979815E-01	-1.06733327E+01
5.73000000E+09	 8.83488790E-01	-1.06412305E+01
5.73500000E+09	 8.82690291E-01	-1.06120491E+01
5.74000000E+09	 8.82140245E-01	-1.06053061E+01
5.74500000E+09	 8.81556763E-01	-1.05958484E+01
5.75000000E+09	 8.80953100E-01	-1.05618660E+01
5.75500000E+09	 8.80182544E-01	-1.05492049E+01
5.76000000E+09	 8.79553781E-01	-1.05332599E+01
5.76500000E+09	 8.78893887E-01	-1.05157416E+01
5.77000000E+09	 8.78107493E-01	-1.04979871E+01
5.77500000E+09	 8.77391289E-01	-1.04934257E+01
5.78000000E+09	 8.76681761E-01	-1.04722377E+01
5.78500000E+09	 8.76012672E-01	-1.04607394E+01
5.79000000E+09	 8.75160641E-01	-1.04399235E+01
5.79500000E+09	 8.74325044E-01	-1.04395343E+01
5.80000000E+09	 8.73526011E-01	-1.04225738E+01
5.80500000E+09	 8.72831230E-01	-1.04083253E+01
5.81000000E+09	 8.71875852E-01	-1.04104218E+01
5.81500000E+09	 8.70862049E-01	-1.03985764E+01
5.82000000E+09	 8.70232607E-01	-1.03820361E+01
5.82500000E+09	 8.69136522E-01	-1.03937619E+01
5.83000000E+09	 8.68483796E-01	-1.03864042E+01
5.83500000E+09	 8.67533092E-01	-1.03755255E+01
5.84000000E+09	 8.66491683E-01	-1.03827655E+01
5.84500000E+09	 8.65804127E-01	-1.03626450E+01
5.85000000E+09	 8.64671827E-01	-1.03792604E+01
5.85500000E+09	 8.63338928E-01	-1.03790284E+01
5.86000000E+09	 8.62756084E-01	-1.03805234E+01
5.86500000E+09	 8.61537758E-01	-1.03854496E+01
5.87000000E+09	 8.60738026E-01	-1.04037312E+01
5.87500000E+09	 8.60203026E-01	-1.03882359E+01
5.88000000E+09	 8.59079734E-01	-1.04155885E+01
5.88500000E+09	 8.58298592E-01	-1.03976150E+01
5.89000000E+09	 8.57391126E-01	-1.04257255E+01
5.89500000E+09	 8.56233502E-01	-1.04329527E+01
5.90000000E+09	 8.55146393E-01	-1.04480186E+01
5.90500000E+09	 8.55008866E-01	-1.04479624E+01
5.91000000E+09	 8.53613011E-01	-1.04650648E+01
5.91500000E+09	 8.52698193E-01	-1.04882131E+01
5.92000000E+09	 8.51687811E-01	-1.04980332E+01
5.92500000E+09	 8.50653915E-01	-1.05051850E+01
5.93000000E+09	 8.50117126E-01	-1.05347534E+01
5.93500000E+09	 8.49058252E-01	-1.05235321E+01
5.94000000E+09	 8.47716028E-01	-1.05643678E+01
5.94500000E+09	 8.46731165E-01	-1.05763291E+01
5.95000000E+09	 8.45668928E-01	-1.06051944E+01
5.95500000E+09	 8.44927318E-01	-1.06338240E+01
5.96000000E+09	 8.43578837E-01	-1.06554313E+01
5.96500000E+09	 8.42534485E-01	-1.06670942E+01
5.97000000E+09	 8.41799405E-01	-1.07196524E+01
5.97500000E+09	 8.40663105E-01	-1.07456040E+01
5.98000000E+09	 8.39701732E-01	-1.07960366E+01
5.98500000E+09	 8.39003282E-01	-1.08329848E+01
5.99000000E+09	 8.38317241E-01	-1.08604144E+01
5.99500000E+09	 8.37178151E-01	-1.08839698E+01
6.00000000E+09	 8.36132246E-01	-1.09356709E+01
