! COPPER MOUNTAIN TECHNOLOGIES, R60, 23103002, 24.3.3/3.0
! Date: 6/8/2026 17:08:24
! Data: Format [Calibration Info]
! Frequency		S11: Mag/Ang F1                
# HZ S MA R 50
1.00000000E+06	 9.99668065E-01	-3.59492074E-01
2.00000000E+06	 9.99553643E-01	-7.04888697E-01
3.00000000E+06	 9.99529833E-01	-1.04350454E+00
4.00000000E+06	 9.99556741E-01	-1.37891378E+00
5.00000000E+06	 9.99575521E-01	-1.72506799E+00
6.00000000E+06	 9.99527785E-01	-2.05960802E+00
7.00000000E+06	 9.99449172E-01	-2.40153105E+00
8.00000000E+06	 9.99519210E-01	-2.74378461E+00
9.00000000E+06	 9.99405822E-01	-3.08304517E+00
1.00000000E+07	 9.99465363E-01	-3.42530016E+00
1.10000000E+07	 9.99532192E-01	-3.76229772E+00
1.20000000E+07	 9.99371706E-01	-4.10520065E+00
1.30000000E+07	 9.99288852E-01	-4.44850576E+00
1.40000000E+07	 9.99433536E-01	-4.77992667E+00
1.50000000E+07	 9.99348681E-01	-5.11857894E+00
1.60000000E+07	 9.99423186E-01	-5.46273427E+00
1.70000000E+07	 9.99318400E-01	-5.78694973E+00
1.80000000E+07	 9.99398991E-01	-6.13614887E+00
1.90000000E+07	 9.99340617E-01	-6.47000504E+00
2.00000000E+07	 9.99352609E-01	-6.80838139E+00
2.10000000E+07	 9.99238492E-01	-7.14854076E+00
2.20000000E+07	 9.99266525E-01	-7.49068001E+00
2.30000000E+07	 9.99271708E-01	-7.81985461E+00
2.40000000E+07	 9.99198315E-01	-8.15925084E+00
2.50000000E+07	 9.99166943E-01	-8.50157219E+00
2.60000000E+07	 9.99238059E-01	-8.82821899E+00
2.70000000E+07	 9.99164602E-01	-9.17898806E+00
2.80000000E+07	 9.99115291E-01	-9.50351895E+00
2.90000000E+07	 9.99069553E-01	-9.84515416E+00
3.00000000E+07	 9.98995487E-01	-1.01862242E+01
3.10000000E+07	 9.98945840E-01	-1.05044315E+01
3.20000000E+07	 9.98874559E-01	-1.08418477E+01
3.30000000E+07	 9.99043861E-01	-1.11874177E+01
3.40000000E+07	 9.98905299E-01	-1.15173696E+01
3.50000000E+07	 9.98855942E-01	-1.18564800E+01
3.60000000E+07	 9.98809210E-01	-1.21935864E+01
3.70000000E+07	 9.98787603E-01	-1.25236899E+01
3.80000000E+07	 9.98860587E-01	-1.28539432E+01
3.90000000E+07	 9.98538072E-01	-1.31859199E+01
4.00000000E+07	 9.98727748E-01	-1.35198928E+01
4.10000000E+07	 9.98670638E-01	-1.38488705E+01
4.20000000E+07	 9.98556521E-01	-1.41792888E+01
4.30000000E+07	 9.98531607E-01	-1.45075300E+01
4.40000000E+07	 9.98588300E-01	-1.48384176E+01
4.50000000E+07	 9.98408822E-01	-1.51753601E+01
4.60000000E+07	 9.98495790E-01	-1.55064285E+01
4.70000000E+07	 9.98409441E-01	-1.58375943E+01
4.80000000E+07	 9.98443639E-01	-1.61660935E+01
4.90000000E+07	 9.98202686E-01	-1.64940738E+01
5.00000000E+07	 9.98323593E-01	-1.68154656E+01
5.10000000E+07	 9.98282204E-01	-1.71457722E+01
5.20000000E+07	 9.98130924E-01	-1.74791272E+01
5.30000000E+07	 9.98058293E-01	-1.77983518E+01
5.40000000E+07	 9.98095882E-01	-1.81281554E+01
5.50000000E+07	 9.97821728E-01	-1.84602995E+01
5.60000000E+07	 9.97816437E-01	-1.87806725E+01
5.70000000E+07	 9.97834112E-01	-1.91066639E+01
5.80000000E+07	 9.97776918E-01	-1.94342449E+01
5.90000000E+07	 9.97632733E-01	-1.97671577E+01
6.00000000E+07	 9.97570506E-01	-2.00825830E+01
6.10000000E+07	 9.97659062E-01	-2.04123608E+01
6.20000000E+07	 9.97446391E-01	-2.07340266E+01
6.30000000E+07	 9.97375145E-01	-2.10576183E+01
6.40000000E+07	 9.97383972E-01	-2.13808148E+01
6.50000000E+07	 9.97247640E-01	-2.17031371E+01
6.60000000E+07	 9.97180458E-01	-2.20303934E+01
6.70000000E+07	 9.97042165E-01	-2.23496002E+01
6.80000000E+07	 9.96930041E-01	-2.26694331E+01
6.90000000E+07	 9.96850112E-01	-2.29895170E+01
7.00000000E+07	 9.96651614E-01	-2.33015852E+01
7.10000000E+07	 9.96707139E-01	-2.36214688E+01
7.20000000E+07	 9.96598356E-01	-2.39427869E+01
7.30000000E+07	 9.96623612E-01	-2.42584861E+01
7.40000000E+07	 9.96428584E-01	-2.45787448E+01
7.50000000E+07	 9.96208980E-01	-2.48954521E+01
7.60000000E+07	 9.96241257E-01	-2.52196939E+01
7.70000000E+07	 9.96110665E-01	-2.55421101E+01
7.80000000E+07	 9.95882666E-01	-2.58443815E+01
7.90000000E+07	 9.95852779E-01	-2.61645715E+01
8.00000000E+07	 9.95540465E-01	-2.64834261E+01
8.10000000E+07	 9.95373133E-01	-2.67984817E+01
8.20000000E+07	 9.95304531E-01	-2.71125498E+01
8.30000000E+07	 9.95237168E-01	-2.74301654E+01
8.40000000E+07	 9.95026284E-01	-2.77473784E+01
8.50000000E+07	 9.94848549E-01	-2.80606138E+01
8.60000000E+07	 9.94638621E-01	-2.83713662E+01
8.70000000E+07	 9.94588855E-01	-2.86902065E+01
8.80000000E+07	 9.94332199E-01	-2.90024873E+01
8.90000000E+07	 9.94279878E-01	-2.93163772E+01
9.00000000E+07	 9.93980805E-01	-2.96359352E+01
9.10000000E+07	 9.93853790E-01	-2.99389628E+01
9.20000000E+07	 9.93687128E-01	-3.02459055E+01
9.30000000E+07	 9.93616338E-01	-3.05576682E+01
9.40000000E+07	 9.93491589E-01	-3.08645383E+01
9.50000000E+07	 9.93223504E-01	-3.11852654E+01
9.60000000E+07	 9.93051234E-01	-3.14848898E+01
9.70000000E+07	 9.92849254E-01	-3.18007454E+01
9.80000000E+07	 9.92782679E-01	-3.21069099E+01
9.90000000E+07	 9.92444749E-01	-3.24135800E+01
1.00000000E+08	 9.92344865E-01	-3.27179883E+01
1.01000000E+08	 9.92179948E-01	-3.30220910E+01
1.02000000E+08	 9.92093246E-01	-3.33372205E+01
1.03000000E+08	 9.91775805E-01	-3.36364354E+01
1.04000000E+08	 9.91716648E-01	-3.39475805E+01
1.05000000E+08	 9.91306450E-01	-3.42481153E+01
1.06000000E+08	 9.91149818E-01	-3.45607741E+01
1.07000000E+08	 9.90916617E-01	-3.48592327E+01
1.08000000E+08	 9.90757821E-01	-3.51633827E+01
1.09000000E+08	 9.90440470E-01	-3.54639242E+01
1.10000000E+08	 9.90262723E-01	-3.57669142E+01
1.11000000E+08	 9.89956058E-01	-3.60589538E+01
1.12000000E+08	 9.89798398E-01	-3.63600579E+01
1.13000000E+08	 9.89550366E-01	-3.66671200E+01
1.14000000E+08	 9.89141734E-01	-3.69678470E+01
1.15000000E+08	 9.89012209E-01	-3.72618168E+01
1.16000000E+08	 9.88727662E-01	-3.75557117E+01
1.17000000E+08	 9.88429341E-01	-3.78489094E+01
1.18000000E+08	 9.88302565E-01	-3.81646668E+01
1.19000000E+08	 9.88061830E-01	-3.84578988E+01
1.20000000E+08	 9.87707224E-01	-3.87518693E+01
1.21000000E+08	 9.87456131E-01	-3.90510970E+01
1.22000000E+08	 9.87221278E-01	-3.93511570E+01
1.23000000E+08	 9.86816467E-01	-3.96450295E+01
1.24000000E+08	 9.86571511E-01	-3.99305831E+01
1.25000000E+08	 9.86299767E-01	-4.02354966E+01
1.26000000E+08	 9.85993593E-01	-4.05309328E+01
1.27000000E+08	 9.85819884E-01	-4.08233698E+01
1.28000000E+08	 9.85504305E-01	-4.11186045E+01
1.29000000E+08	 9.85142434E-01	-4.14203401E+01
1.30000000E+08	 9.84794722E-01	-4.17002163E+01
1.31000000E+08	 9.84418429E-01	-4.19980098E+01
1.32000000E+08	 9.84235910E-01	-4.22903267E+01
1.33000000E+08	 9.84039551E-01	-4.25919641E+01
1.34000000E+08	 9.83507364E-01	-4.28713203E+01
1.35000000E+08	 9.83361806E-01	-4.31677033E+01
1.36000000E+08	 9.83028192E-01	-4.34593617E+01
1.37000000E+08	 9.82690876E-01	-4.37505981E+01
1.38000000E+08	 9.82232825E-01	-4.40402068E+01
1.39000000E+08	 9.81943160E-01	-4.43344052E+01
1.40000000E+08	 9.81587646E-01	-4.46213017E+01
1.41000000E+08	 9.81355761E-01	-4.49070205E+01
1.42000000E+08	 9.80970153E-01	-4.51942961E+01
1.43000000E+08	 9.80549897E-01	-4.54884206E+01
1.44000000E+08	 9.80289132E-01	-4.57783487E+01
1.45000000E+08	 9.80053205E-01	-4.60622174E+01
1.46000000E+08	 9.79606147E-01	-4.63471081E+01
1.47000000E+08	 9.79164748E-01	-4.66467751E+01
1.48000000E+08	 9.78782929E-01	-4.69208573E+01
1.49000000E+08	 9.78429941E-01	-4.72151321E+01
1.50000000E+08	 9.78175208E-01	-4.74991370E+01
1.51000000E+08	 9.77820966E-01	-4.77842271E+01
1.52000000E+08	 9.77397743E-01	-4.80845954E+01
1.53000000E+08	 9.77089247E-01	-4.83599245E+01
1.54000000E+08	 9.76651672E-01	-4.86505298E+01
1.55000000E+08	 9.76153666E-01	-4.89341958E+01
1.56000000E+08	 9.75824746E-01	-4.92088947E+01
1.57000000E+08	 9.75489943E-01	-4.94935374E+01
1.58000000E+08	 9.75049702E-01	-4.97792248E+01
1.59000000E+08	 9.74708540E-01	-5.00708428E+01
1.60000000E+08	 9.74337227E-01	-5.03500418E+01
1.61000000E+08	 9.73786218E-01	-5.06442500E+01
1.62000000E+08	 9.73471407E-01	-5.09148580E+01
1.63000000E+08	 9.73190837E-01	-5.11975702E+01
1.64000000E+08	 9.72899705E-01	-5.14798936E+01
1.65000000E+08	 9.72513370E-01	-5.17558071E+01
1.66000000E+08	 9.72256334E-01	-5.20414862E+01
1.67000000E+08	 9.71894266E-01	-5.23181505E+01
1.68000000E+08	 9.71661223E-01	-5.25966064E+01
1.69000000E+08	 9.71281477E-01	-5.28758899E+01
1.70000000E+08	 9.70869591E-01	-5.31648303E+01
1.71000000E+08	 9.70551150E-01	-5.34314572E+01
1.72000000E+08	 9.70106743E-01	-5.37167923E+01
1.73000000E+08	 9.69687539E-01	-5.39937932E+01
1.74000000E+08	 9.69455808E-01	-5.42750576E+01
1.75000000E+08	 9.69052701E-01	-5.45486138E+01
1.76000000E+08	 9.68835170E-01	-5.48334395E+01
1.77000000E+08	 9.68378666E-01	-5.51060156E+01
1.78000000E+08	 9.67942121E-01	-5.53848444E+01
1.79000000E+08	 9.67559225E-01	-5.56597935E+01
1.80000000E+08	 9.67332209E-01	-5.59411308E+01
1.81000000E+08	 9.66922047E-01	-5.62126097E+01
1.82000000E+08	 9.66558675E-01	-5.64946070E+01
1.83000000E+08	 9.66187607E-01	-5.67673588E+01
1.84000000E+08	 9.65674993E-01	-5.70440910E+01
1.85000000E+08	 9.65406719E-01	-5.73256019E+01
1.86000000E+08	 9.65084381E-01	-5.76008120E+01
1.87000000E+08	 9.64667556E-01	-5.78734988E+01
1.88000000E+08	 9.64289757E-01	-5.81493848E+01
1.89000000E+08	 9.63878188E-01	-5.84240572E+01
1.90000000E+08	 9.63608145E-01	-5.87031300E+01
1.91000000E+08	 9.63305736E-01	-5.89709014E+01
1.92000000E+08	 9.62948669E-01	-5.92458084E+01
1.93000000E+08	 9.62671858E-01	-5.95197510E+01
1.94000000E+08	 9.62356008E-01	-5.97876487E+01
1.95000000E+08	 9.61953143E-01	-6.00562203E+01
1.96000000E+08	 9.61722278E-01	-6.03343056E+01
1.97000000E+08	 9.61428466E-01	-6.06052871E+01
1.98000000E+08	 9.61033856E-01	-6.08830719E+01
1.99000000E+08	 9.60869431E-01	-6.11489191E+01
2.00000000E+08	 9.60580552E-01	-6.14160180E+01
2.01000000E+08	 9.60302177E-01	-6.16860876E+01
2.02000000E+08	 9.60001259E-01	-6.19607332E+01
2.03000000E+08	 9.59757137E-01	-6.22264172E+01
2.04000000E+08	 9.59321384E-01	-6.24934614E+01
2.05000000E+08	 9.59116742E-01	-6.27654271E+01
2.06000000E+08	 9.58909077E-01	-6.30308269E+01
2.07000000E+08	 9.58649967E-01	-6.33016281E+01
2.08000000E+08	 9.58352369E-01	-6.35618328E+01
2.09000000E+08	 9.58093328E-01	-6.38354750E+01
2.10000000E+08	 9.57768408E-01	-6.41069697E+01
2.11000000E+08	 9.57543209E-01	-6.43779971E+01
2.12000000E+08	 9.57391328E-01	-6.46350195E+01
2.13000000E+08	 9.57178936E-01	-6.48974761E+01
2.14000000E+08	 9.56939942E-01	-6.51632428E+01
2.15000000E+08	 9.56792895E-01	-6.54314567E+01
2.16000000E+08	 9.56364818E-01	-6.56972439E+01
2.17000000E+08	 9.56195002E-01	-6.59587388E+01
2.18000000E+08	 9.55936405E-01	-6.62247665E+01
2.19000000E+08	 9.55851004E-01	-6.64968903E+01
2.20000000E+08	 9.55638539E-01	-6.67606119E+01
2.21000000E+08	 9.55593152E-01	-6.70148719E+01
2.22000000E+08	 9.55257975E-01	-6.72811368E+01
2.23000000E+08	 9.55115458E-01	-6.75379015E+01
2.24000000E+08	 9.54917318E-01	-6.78063606E+01
2.25000000E+08	 9.54766925E-01	-6.80718516E+01
2.26000000E+08	 9.54655068E-01	-6.83280940E+01
2.27000000E+08	 9.54443406E-01	-6.85885403E+01
2.28000000E+08	 9.54174292E-01	-6.88383547E+01
2.29000000E+08	 9.54091284E-01	-6.90964095E+01
2.30000000E+08	 9.53978899E-01	-6.93604599E+01
2.31000000E+08	 9.53962544E-01	-6.96207515E+01
2.32000000E+08	 9.53678221E-01	-6.98709086E+01
2.33000000E+08	 9.53568262E-01	-7.01220577E+01
2.34000000E+08	 9.53571676E-01	-7.03854552E+01
2.35000000E+08	 9.53398956E-01	-7.06362508E+01
2.36000000E+08	 9.53094682E-01	-7.08952455E+01
2.37000000E+08	 9.53224436E-01	-7.11497844E+01
2.38000000E+08	 9.53030509E-01	-7.14025538E+01
2.39000000E+08	 9.52884340E-01	-7.16559327E+01
2.40000000E+08	 9.52842273E-01	-7.19090374E+01
2.41000000E+08	 9.52633629E-01	-7.21604367E+01
2.42000000E+08	 9.52589291E-01	-7.24150811E+01
2.43000000E+08	 9.52456895E-01	-7.26648764E+01
2.44000000E+08	 9.52336975E-01	-7.29053872E+01
2.45000000E+08	 9.52344709E-01	-7.31572430E+01
2.46000000E+08	 9.52191772E-01	-7.33969892E+01
2.47000000E+08	 9.52233788E-01	-7.36581855E+01
2.48000000E+08	 9.52106654E-01	-7.39034773E+01
2.49000000E+08	 9.52004585E-01	-7.41518410E+01
2.50000000E+08	 9.51886016E-01	-7.43963057E+01
2.51000000E+08	 9.51890335E-01	-7.46424206E+01
2.52000000E+08	 9.51816749E-01	-7.48914020E+01
2.53000000E+08	 9.51787705E-01	-7.51355315E+01
2.54000000E+08	 9.51722763E-01	-7.53797322E+01
2.55000000E+08	 9.51679102E-01	-7.56214329E+01
2.56000000E+08	 9.51531133E-01	-7.58629658E+01
2.57000000E+08	 9.51629275E-01	-7.61029915E+01
2.58000000E+08	 9.51643859E-01	-7.63443336E+01
2.59000000E+08	 9.51612171E-01	-7.65840173E+01
2.60000000E+08	 9.51657612E-01	-7.68205610E+01
2.61000000E+08	 9.51710211E-01	-7.70616282E+01
2.62000000E+08	 9.51671358E-01	-7.73063905E+01
2.63000000E+08	 9.51632023E-01	-7.75459389E+01
2.64000000E+08	 9.51708223E-01	-7.77711678E+01
2.65000000E+08	 9.51706548E-01	-7.80144900E+01
2.66000000E+08	 9.51708872E-01	-7.82479439E+01
2.67000000E+08	 9.51825631E-01	-7.84864720E+01
2.68000000E+08	 9.51784672E-01	-7.87232598E+01
2.69000000E+08	 9.51875995E-01	-7.89576576E+01
2.70000000E+08	 9.51923028E-01	-7.91848868E+01
2.71000000E+08	 9.51929150E-01	-7.94156235E+01
2.72000000E+08	 9.51936732E-01	-7.96501204E+01
2.73000000E+08	 9.52057612E-01	-7.98720789E+01
2.74000000E+08	 9.52070326E-01	-8.01142019E+01
2.75000000E+08	 9.51998931E-01	-8.03435613E+01
2.76000000E+08	 9.52279823E-01	-8.05655138E+01
2.77000000E+08	 9.52234232E-01	-8.07918880E+01
2.78000000E+08	 9.52361682E-01	-8.10262638E+01
2.79000000E+08	 9.52434709E-01	-8.12490418E+01
2.80000000E+08	 9.52456398E-01	-8.14688253E+01
2.81000000E+08	 9.52551159E-01	-8.16922065E+01
2.82000000E+08	 9.52662866E-01	-8.19235156E+01
2.83000000E+08	 9.52699802E-01	-8.21482588E+01
2.84000000E+08	 9.52796038E-01	-8.23727780E+01
2.85000000E+08	 9.53012816E-01	-8.25892724E+01
2.86000000E+08	 9.53017933E-01	-8.28165728E+01
2.87000000E+08	 9.53158405E-01	-8.30314784E+01
2.88000000E+08	 9.53369011E-01	-8.32553426E+01
2.89000000E+08	 9.53476107E-01	-8.34750832E+01
2.90000000E+08	 9.53598794E-01	-8.36937746E+01
2.91000000E+08	 9.53654433E-01	-8.39085213E+01
2.92000000E+08	 9.53901079E-01	-8.41251905E+01
2.93000000E+08	 9.54028454E-01	-8.43499799E+01
2.94000000E+08	 9.54166953E-01	-8.45595071E+01
2.95000000E+08	 9.54336339E-01	-8.47823902E+01
2.96000000E+08	 9.54487343E-01	-8.49977299E+01
2.97000000E+08	 9.54645034E-01	-8.52076351E+01
2.98000000E+08	 9.54857903E-01	-8.54249788E+01
2.99000000E+08	 9.54972017E-01	-8.56370594E+01
3.00000000E+08	 9.55040881E-01	-8.58550995E+01
3.01000000E+08	 9.55280948E-01	-8.60594538E+01
3.02000000E+08	 9.55373589E-01	-8.62736709E+01
3.03000000E+08	 9.55652612E-01	-8.64738988E+01
3.04000000E+08	 9.55768219E-01	-8.66896747E+01
3.05000000E+08	 9.56031875E-01	-8.68937576E+01
3.06000000E+08	 9.56003988E-01	-8.71036970E+01
3.07000000E+08	 9.56234710E-01	-8.73177469E+01
3.08000000E+08	 9.56563070E-01	-8.75132176E+01
3.09000000E+08	 9.56701294E-01	-8.77270391E+01
3.10000000E+08	 9.56740127E-01	-8.79266792E+01
3.11000000E+08	 9.57024186E-01	-8.81350824E+01
3.12000000E+08	 9.57252674E-01	-8.83326427E+01
3.13000000E+08	 9.57326923E-01	-8.85399100E+01
3.14000000E+08	 9.57522559E-01	-8.87383130E+01
3.15000000E+08	 9.57740800E-01	-8.89364519E+01
3.16000000E+08	 9.57931467E-01	-8.91412132E+01
3.17000000E+08	 9.58060546E-01	-8.93415683E+01
3.18000000E+08	 9.58245128E-01	-8.95483689E+01
3.19000000E+08	 9.58391145E-01	-8.97426009E+01
3.20000000E+08	 9.58638785E-01	-8.99379421E+01
3.21000000E+08	 9.58824375E-01	-9.01350383E+01
3.22000000E+08	 9.58824876E-01	-9.03265553E+01
3.23000000E+08	 9.59017679E-01	-9.05237077E+01
3.24000000E+08	 9.59150318E-01	-9.07172844E+01
3.25000000E+08	 9.59318437E-01	-9.09196954E+01
3.26000000E+08	 9.59470936E-01	-9.11142943E+01
3.27000000E+08	 9.59556173E-01	-9.13052078E+01
3.28000000E+08	 9.59711636E-01	-9.15074667E+01
3.29000000E+08	 9.59790157E-01	-9.16991120E+01
3.30000000E+08	 9.59820185E-01	-9.18867873E+01
3.31000000E+08	 9.60035038E-01	-9.20805603E+01
3.32000000E+08	 9.60141667E-01	-9.22758531E+01
3.33000000E+08	 9.60407744E-01	-9.24668853E+01
3.34000000E+08	 9.60390944E-01	-9.26538522E+01
3.35000000E+08	 9.60572387E-01	-9.28381344E+01
3.36000000E+08	 9.60664021E-01	-9.30329478E+01
3.37000000E+08	 9.60698802E-01	-9.32268602E+01
3.38000000E+08	 9.60837682E-01	-9.34150028E+01
3.39000000E+08	 9.61044106E-01	-9.36111034E+01
3.40000000E+08	 9.60960700E-01	-9.37940579E+01
3.41000000E+08	 9.61235695E-01	-9.39828444E+01
3.42000000E+08	 9.61280495E-01	-9.41738871E+01
3.43000000E+08	 9.61410374E-01	-9.43627969E+01
3.44000000E+08	 9.61478096E-01	-9.45393828E+01
3.45000000E+08	 9.61645044E-01	-9.47285010E+01
3.46000000E+08	 9.61656194E-01	-9.49076083E+01
3.47000000E+08	 9.61768779E-01	-9.50980107E+01
3.48000000E+08	 9.61956825E-01	-9.52742077E+01
3.49000000E+08	 9.61953975E-01	-9.54658757E+01
3.50000000E+08	 9.62045426E-01	-9.56507434E+01
3.51000000E+08	 9.62115571E-01	-9.58418775E+01
3.52000000E+08	 9.62182202E-01	-9.60257493E+01
3.53000000E+08	 9.62207548E-01	-9.62163413E+01
3.54000000E+08	 9.62171110E-01	-9.64028013E+01
3.55000000E+08	 9.62110910E-01	-9.65969607E+01
3.56000000E+08	 9.62198364E-01	-9.67873333E+01
3.57000000E+08	 9.62051096E-01	-9.69717688E+01
3.58000000E+08	 9.61970524E-01	-9.71580026E+01
3.59000000E+08	 9.61930487E-01	-9.73616108E+01
3.60000000E+08	 9.61700664E-01	-9.75469228E+01
3.61000000E+08	 9.61502887E-01	-9.77417281E+01
3.62000000E+08	 9.61166396E-01	-9.79343221E+01
3.63000000E+08	 9.60791820E-01	-9.81235084E+01
3.64000000E+08	 9.60313704E-01	-9.83170624E+01
3.65000000E+08	 9.59900014E-01	-9.84998628E+01
3.66000000E+08	 9.59535099E-01	-9.86896884E+01
3.67000000E+08	 9.58855898E-01	-9.88725428E+01
3.68000000E+08	 9.58185101E-01	-9.90447358E+01
3.69000000E+08	 9.57697347E-01	-9.92205390E+01
3.70000000E+08	 9.57338946E-01	-9.93858045E+01
3.71000000E+08	 9.57034808E-01	-9.95573701E+01
3.72000000E+08	 9.56595056E-01	-9.97453469E+01
3.73000000E+08	 9.56259585E-01	-9.99355370E+01
3.74000000E+08	 9.55689743E-01	-1.00137745E+02
3.75000000E+08	 9.55010784E-01	-1.00339076E+02
3.76000000E+08	 9.54061613E-01	-1.00548502E+02
3.77000000E+08	 9.52905567E-01	-1.00746802E+02
3.78000000E+08	 9.51672562E-01	-1.00946941E+02
3.79000000E+08	 9.50135168E-01	-1.01140568E+02
3.80000000E+08	 9.48468491E-01	-1.01336311E+02
3.81000000E+08	 9.46537980E-01	-1.01522232E+02
3.82000000E+08	 9.44183511E-01	-1.01680174E+02
3.83000000E+08	 9.41866371E-01	-1.01825022E+02
3.84000000E+08	 9.39415469E-01	-1.01940877E+02
3.85000000E+08	 9.36909465E-01	-1.02042992E+02
3.86000000E+08	 9.34409555E-01	-1.02123261E+02
3.87000000E+08	 9.31905392E-01	-1.02178499E+02
3.88000000E+08	 9.29780322E-01	-1.02201004E+02
3.89000000E+08	 9.27720942E-01	-1.02194426E+02
3.90000000E+08	 9.26391557E-01	-1.02179254E+02
3.91000000E+08	 9.25564683E-01	-1.02157734E+02
3.92000000E+08	 9.25217532E-01	-1.02129330E+02
3.93000000E+08	 9.25411612E-01	-1.02125714E+02
3.94000000E+08	 9.26027903E-01	-1.02134651E+02
3.95000000E+08	 9.26612805E-01	-1.02172012E+02
3.96000000E+08	 9.27236531E-01	-1.02230201E+02
3.97000000E+08	 9.27734093E-01	-1.02310839E+02
3.98000000E+08	 9.28151726E-01	-1.02394575E+02
3.99000000E+08	 9.28195427E-01	-1.02477109E+02
4.00000000E+08	 9.27998952E-01	-1.02560253E+02
4.01000000E+08	 9.27929166E-01	-1.02621483E+02
4.02000000E+08	 9.27729613E-01	-1.02672940E+02
4.03000000E+08	 9.27818848E-01	-1.02708103E+02
4.04000000E+08	 9.28030969E-01	-1.02728124E+02
4.05000000E+08	 9.29007642E-01	-1.02745951E+02
4.06000000E+08	 9.30194561E-01	-1.02788798E+02
4.07000000E+08	 9.31898187E-01	-1.02840884E+02
4.08000000E+08	 9.33732272E-01	-1.02932270E+02
4.09000000E+08	 9.35736694E-01	-1.03044051E+02
4.10000000E+08	 9.37538151E-01	-1.03193621E+02
4.11000000E+08	 9.39202651E-01	-1.03366577E+02
4.12000000E+08	 9.40264415E-01	-1.03570219E+02
4.13000000E+08	 9.41183186E-01	-1.03776968E+02
4.14000000E+08	 9.41594888E-01	-1.04006634E+02
4.15000000E+08	 9.41320135E-01	-1.04229552E+02
4.16000000E+08	 9.40548739E-01	-1.04446157E+02
4.17000000E+08	 9.39182508E-01	-1.04661125E+02
4.18000000E+08	 9.37191275E-01	-1.04847730E+02
4.19000000E+08	 9.34779091E-01	-1.04968613E+02
4.20000000E+08	 9.32225844E-01	-1.05036440E+02
4.21000000E+08	 9.30240184E-01	-1.05036542E+02
4.22000000E+08	 9.29231188E-01	-1.04989438E+02
4.23000000E+08	 9.29418360E-01	-1.04928139E+02
4.24000000E+08	 9.30612137E-01	-1.04893886E+02
4.25000000E+08	 9.32576949E-01	-1.04907177E+02
4.26000000E+08	 9.34779017E-01	-1.04960727E+02
4.27000000E+08	 9.36904967E-01	-1.05075069E+02
4.28000000E+08	 9.38760880E-01	-1.05207629E+02
4.29000000E+08	 9.40336048E-01	-1.05358722E+02
4.30000000E+08	 9.41628175E-01	-1.05537113E+02
4.31000000E+08	 9.42705665E-01	-1.05714494E+02
4.32000000E+08	 9.43517599E-01	-1.05892496E+02
4.33000000E+08	 9.44101798E-01	-1.06091085E+02
4.34000000E+08	 9.44336103E-01	-1.06285173E+02
4.35000000E+08	 9.44570160E-01	-1.06472486E+02
4.36000000E+08	 9.44590455E-01	-1.06668713E+02
4.37000000E+08	 9.44390561E-01	-1.06864761E+02
4.38000000E+08	 9.43831162E-01	-1.07064032E+02
4.39000000E+08	 9.43120933E-01	-1.07254633E+02
4.40000000E+08	 9.42098574E-01	-1.07434930E+02
4.41000000E+08	 9.40768648E-01	-1.07601140E+02
4.42000000E+08	 9.39003567E-01	-1.07752147E+02
4.43000000E+08	 9.37198752E-01	-1.07872605E+02
4.44000000E+08	 9.35294199E-01	-1.07941873E+02
4.45000000E+08	 9.33897079E-01	-1.07977070E+02
4.46000000E+08	 9.32953598E-01	-1.07983489E+02
4.47000000E+08	 9.32923581E-01	-1.07963434E+02
4.48000000E+08	 9.33492080E-01	-1.07971978E+02
4.49000000E+08	 9.34662118E-01	-1.08013166E+02
4.50000000E+08	 9.36240982E-01	-1.08077271E+02
4.51000000E+08	 9.37736797E-01	-1.08180101E+02
4.52000000E+08	 9.39147587E-01	-1.08300188E+02
4.53000000E+08	 9.40428214E-01	-1.08437724E+02
4.54000000E+08	 9.41547183E-01	-1.08598146E+02
4.55000000E+08	 9.42394200E-01	-1.08765321E+02
4.56000000E+08	 9.42843004E-01	-1.08933761E+02
4.57000000E+08	 9.43570447E-01	-1.09100521E+02
4.58000000E+08	 9.43880457E-01	-1.09276349E+02
4.59000000E+08	 9.44040258E-01	-1.09452855E+02
4.60000000E+08	 9.44190068E-01	-1.09614064E+02
4.61000000E+08	 9.44099599E-01	-1.09779357E+02
4.62000000E+08	 9.44053683E-01	-1.09926693E+02
4.63000000E+08	 9.44084210E-01	-1.10080969E+02
4.64000000E+08	 9.44302302E-01	-1.10222399E+02
4.65000000E+08	 9.44553352E-01	-1.10384111E+02
4.66000000E+08	 9.44877338E-01	-1.10546959E+02
4.67000000E+08	 9.45128203E-01	-1.10719284E+02
4.68000000E+08	 9.45020104E-01	-1.10894372E+02
4.69000000E+08	 9.44930691E-01	-1.11073246E+02
4.70000000E+08	 9.44778741E-01	-1.11251127E+02
4.71000000E+08	 9.44484105E-01	-1.11436971E+02
4.72000000E+08	 9.44083746E-01	-1.11604988E+02
4.73000000E+08	 9.43645154E-01	-1.11773396E+02
4.74000000E+08	 9.43150588E-01	-1.11932378E+02
4.75000000E+08	 9.42629116E-01	-1.12081475E+02
4.76000000E+08	 9.42457456E-01	-1.12239028E+02
4.77000000E+08	 9.42376043E-01	-1.12384182E+02
4.78000000E+08	 9.42330927E-01	-1.12553318E+02
4.79000000E+08	 9.42168642E-01	-1.12725478E+02
4.80000000E+08	 9.42197085E-01	-1.12906585E+02
4.81000000E+08	 9.42030619E-01	-1.13092289E+02
4.82000000E+08	 9.41749370E-01	-1.13288485E+02
4.83000000E+08	 9.41443305E-01	-1.13481931E+02
4.84000000E+08	 9.40932138E-01	-1.13672266E+02
4.85000000E+08	 9.40432497E-01	-1.13875651E+02
4.86000000E+08	 9.39766851E-01	-1.14074197E+02
4.87000000E+08	 9.39176519E-01	-1.14276756E+02
4.88000000E+08	 9.38293656E-01	-1.14483385E+02
4.89000000E+08	 9.37322981E-01	-1.14683761E+02
4.90000000E+08	 9.36389810E-01	-1.14895791E+02
4.91000000E+08	 9.35313274E-01	-1.15105679E+02
4.92000000E+08	 9.34079327E-01	-1.15325000E+02
4.93000000E+08	 9.32767251E-01	-1.15537761E+02
4.94000000E+08	 9.31352382E-01	-1.15757526E+02
4.95000000E+08	 9.29657787E-01	-1.15980890E+02
4.96000000E+08	 9.27626686E-01	-1.16198876E+02
4.97000000E+08	 9.25481392E-01	-1.16426282E+02
4.98000000E+08	 9.22997669E-01	-1.16636444E+02
4.99000000E+08	 9.20330423E-01	-1.16849858E+02
5.00000000E+08	 9.17201268E-01	-1.17052748E+02
5.01000000E+08	 9.13772755E-01	-1.17246686E+02
5.02000000E+08	 9.10127919E-01	-1.17419469E+02
5.03000000E+08	 9.06074091E-01	-1.17566652E+02
5.04000000E+08	 9.01579792E-01	-1.17684954E+02
5.05000000E+08	 8.96920509E-01	-1.17768153E+02
5.06000000E+08	 8.92188585E-01	-1.17797727E+02
5.07000000E+08	 8.87252785E-01	-1.17767722E+02
5.08000000E+08	 8.82979927E-01	-1.17668902E+02
5.09000000E+08	 8.79373892E-01	-1.17522664E+02
5.10000000E+08	 8.76794544E-01	-1.17327186E+02
5.11000000E+08	 8.75270774E-01	-1.17148276E+02
5.12000000E+08	 8.74802045E-01	-1.16971633E+02
5.13000000E+08	 8.74770377E-01	-1.16837621E+02
5.14000000E+08	 8.75136939E-01	-1.16744858E+02
5.15000000E+08	 8.75353163E-01	-1.16676698E+02
5.16000000E+08	 8.75402619E-01	-1.16611760E+02
5.17000000E+08	 8.75436778E-01	-1.16533339E+02
5.18000000E+08	 8.75772890E-01	-1.16437728E+02
5.19000000E+08	 8.76493037E-01	-1.16319188E+02
5.20000000E+08	 8.77962607E-01	-1.16207766E+02
5.21000000E+08	 8.80278291E-01	-1.16111034E+02
5.22000000E+08	 8.82901656E-01	-1.16067798E+02
5.23000000E+08	 8.86069854E-01	-1.16061563E+02
5.24000000E+08	 8.89134609E-01	-1.16119194E+02
5.25000000E+08	 8.91925092E-01	-1.16220701E+02
5.26000000E+08	 8.94150017E-01	-1.16356206E+02
5.27000000E+08	 8.96031950E-01	-1.16502196E+02
5.28000000E+08	 8.97281186E-01	-1.16646779E+02
5.29000000E+08	 8.98165964E-01	-1.16783129E+02
5.30000000E+08	 8.98884296E-01	-1.16915200E+02
5.31000000E+08	 8.99380922E-01	-1.17017380E+02
5.32000000E+08	 9.00102704E-01	-1.17115678E+02
5.33000000E+08	 9.00677711E-01	-1.17199350E+02
5.34000000E+08	 9.01540332E-01	-1.17292695E+02
5.35000000E+08	 9.02287271E-01	-1.17373908E+02
5.36000000E+08	 9.03175630E-01	-1.17457946E+02
5.37000000E+08	 9.04172801E-01	-1.17544300E+02
5.38000000E+08	 9.05251880E-01	-1.17618115E+02
5.39000000E+08	 9.06564830E-01	-1.17694003E+02
5.40000000E+08	 9.07989571E-01	-1.17778161E+02
5.41000000E+08	 9.09676306E-01	-1.17878944E+02
5.42000000E+08	 9.11533775E-01	-1.17984559E+02
5.43000000E+08	 9.13259071E-01	-1.18112292E+02
5.44000000E+08	 9.15101206E-01	-1.18254856E+02
5.45000000E+08	 9.16804506E-01	-1.18404461E+02
5.46000000E+08	 9.18406852E-01	-1.18577087E+02
5.47000000E+08	 9.20020201E-01	-1.18752500E+02
5.48000000E+08	 9.21364545E-01	-1.18935910E+02
5.49000000E+08	 9.22577334E-01	-1.19130201E+02
5.50000000E+08	 9.23541608E-01	-1.19332777E+02
5.51000000E+08	 9.24543100E-01	-1.19525922E+02
5.52000000E+08	 9.25365726E-01	-1.19731531E+02
5.53000000E+08	 9.26018512E-01	-1.19933571E+02
5.54000000E+08	 9.26458830E-01	-1.20134124E+02
5.55000000E+08	 9.26919094E-01	-1.20334942E+02
5.56000000E+08	 9.27113134E-01	-1.20536512E+02
5.57000000E+08	 9.27408021E-01	-1.20739956E+02
5.58000000E+08	 9.27507942E-01	-1.20947195E+02
5.59000000E+08	 9.27522064E-01	-1.21143633E+02
5.60000000E+08	 9.27392700E-01	-1.21342285E+02
5.61000000E+08	 9.27298775E-01	-1.21540973E+02
5.62000000E+08	 9.26895329E-01	-1.21747587E+02
5.63000000E+08	 9.26482558E-01	-1.21939650E+02
5.64000000E+08	 9.26089456E-01	-1.22122492E+02
5.65000000E+08	 9.25408824E-01	-1.22321512E+02
5.66000000E+08	 9.24899318E-01	-1.22505504E+02
5.67000000E+08	 9.24020778E-01	-1.22685653E+02
5.68000000E+08	 9.23192240E-01	-1.22869320E+02
5.69000000E+08	 9.22360790E-01	-1.23036860E+02
5.70000000E+08	 9.21249930E-01	-1.23204574E+02
5.71000000E+08	 9.20193468E-01	-1.23361829E+02
5.72000000E+08	 9.19145814E-01	-1.23517304E+02
5.73000000E+08	 9.18082046E-01	-1.23668332E+02
5.74000000E+08	 9.16887647E-01	-1.23811918E+02
5.75000000E+08	 9.15703322E-01	-1.23951329E+02
5.76000000E+08	 9.14526240E-01	-1.24090906E+02
5.77000000E+08	 9.13227181E-01	-1.24219888E+02
5.78000000E+08	 9.11967436E-01	-1.24344714E+02
5.79000000E+08	 9.10651484E-01	-1.24469060E+02
5.80000000E+08	 9.09247093E-01	-1.24576733E+02
5.81000000E+08	 9.07906739E-01	-1.24689061E+02
5.82000000E+08	 9.06459276E-01	-1.24783677E+02
5.83000000E+08	 9.05165636E-01	-1.24882115E+02
5.84000000E+08	 9.03505288E-01	-1.24965937E+02
5.85000000E+08	 9.02104154E-01	-1.25036611E+02
5.86000000E+08	 9.00637691E-01	-1.25094371E+02
5.87000000E+08	 8.99334518E-01	-1.25134798E+02
5.88000000E+08	 8.98327359E-01	-1.25175696E+02
5.89000000E+08	 8.97514329E-01	-1.25221917E+02
5.90000000E+08	 8.96739015E-01	-1.25256339E+02
5.91000000E+08	 8.96140226E-01	-1.25303121E+02
5.92000000E+08	 8.95548717E-01	-1.25360625E+02
5.93000000E+08	 8.94801225E-01	-1.25419525E+02
5.94000000E+08	 8.93935104E-01	-1.25485883E+02
5.95000000E+08	 8.93064862E-01	-1.25534993E+02
5.96000000E+08	 8.91916543E-01	-1.25587715E+02
5.97000000E+08	 8.90711472E-01	-1.25617016E+02
5.98000000E+08	 8.89438651E-01	-1.25638116E+02
5.99000000E+08	 8.88441981E-01	-1.25636666E+02
6.00000000E+08	 8.87421875E-01	-1.25607693E+02
6.01000000E+08	 8.86644256E-01	-1.25574515E+02
6.02000000E+08	 8.86204221E-01	-1.25522183E+02
6.03000000E+08	 8.86189703E-01	-1.25465093E+02
6.04000000E+08	 8.86462649E-01	-1.25408448E+02
6.05000000E+08	 8.87134365E-01	-1.25368704E+02
6.06000000E+08	 8.87989785E-01	-1.25341920E+02
6.07000000E+08	 8.89066782E-01	-1.25332186E+02
6.08000000E+08	 8.90214260E-01	-1.25334525E+02
6.09000000E+08	 8.91382221E-01	-1.25352039E+02
6.10000000E+08	 8.92214858E-01	-1.25385848E+02
6.11000000E+08	 8.93295652E-01	-1.25417150E+02
6.12000000E+08	 8.94041020E-01	-1.25455635E+02
6.13000000E+08	 8.94743267E-01	-1.25482886E+02
6.14000000E+08	 8.95527401E-01	-1.25503430E+02
6.15000000E+08	 8.96186264E-01	-1.25518278E+02
6.16000000E+08	 8.97254678E-01	-1.25519665E+02
6.17000000E+08	 8.98510097E-01	-1.25519745E+02
6.18000000E+08	 8.99996008E-01	-1.25526906E+02
6.19000000E+08	 9.01823736E-01	-1.25540783E+02
6.20000000E+08	 9.03767130E-01	-1.25563868E+02
6.21000000E+08	 9.05899092E-01	-1.25613079E+02
6.22000000E+08	 9.08130835E-01	-1.25678619E+02
6.23000000E+08	 9.10391637E-01	-1.25765428E+02
6.24000000E+08	 9.12572084E-01	-1.25868648E+02
6.25000000E+08	 9.14563862E-01	-1.25986358E+02
6.26000000E+08	 9.16424693E-01	-1.26114313E+02
6.27000000E+08	 9.18131065E-01	-1.26251845E+02
6.28000000E+08	 9.19682942E-01	-1.26411021E+02
6.29000000E+08	 9.20947467E-01	-1.26561891E+02
6.30000000E+08	 9.22074778E-01	-1.26731786E+02
6.31000000E+08	 9.23152322E-01	-1.26885485E+02
6.32000000E+08	 9.24033946E-01	-1.27053975E+02
6.33000000E+08	 9.24744808E-01	-1.27217510E+02
6.34000000E+08	 9.25146921E-01	-1.27384663E+02
6.35000000E+08	 9.25573216E-01	-1.27542377E+02
6.36000000E+08	 9.25874336E-01	-1.27708190E+02
6.37000000E+08	 9.25928457E-01	-1.27869148E+02
6.38000000E+08	 9.25986387E-01	-1.28029514E+02
6.39000000E+08	 9.25711633E-01	-1.28190590E+02
6.40000000E+08	 9.25391306E-01	-1.28348971E+02
6.41000000E+08	 9.24802029E-01	-1.28502309E+02
6.42000000E+08	 9.24246259E-01	-1.28640887E+02
6.43000000E+08	 9.23478871E-01	-1.28787506E+02
6.44000000E+08	 9.22392116E-01	-1.28915559E+02
6.45000000E+08	 9.21248282E-01	-1.29029803E+02
6.46000000E+08	 9.20186932E-01	-1.29137851E+02
6.47000000E+08	 9.18776926E-01	-1.29221376E+02
6.48000000E+08	 9.17485958E-01	-1.29295422E+02
6.49000000E+08	 9.16251943E-01	-1.29350997E+02
6.50000000E+08	 9.14962121E-01	-1.29398790E+02
6.51000000E+08	 9.13977795E-01	-1.29429537E+02
6.52000000E+08	 9.13207148E-01	-1.29442686E+02
6.53000000E+08	 9.12492504E-01	-1.29446929E+02
6.54000000E+08	 9.12137430E-01	-1.29462266E+02
6.55000000E+08	 9.12027055E-01	-1.29470354E+02
6.56000000E+08	 9.12014642E-01	-1.29465299E+02
6.57000000E+08	 9.12362715E-01	-1.29493683E+02
6.58000000E+08	 9.12879985E-01	-1.29509578E+02
6.59000000E+08	 9.13276822E-01	-1.29535782E+02
6.60000000E+08	 9.13946262E-01	-1.29568585E+02
6.61000000E+08	 9.14559700E-01	-1.29629641E+02
6.62000000E+08	 9.15170877E-01	-1.29685292E+02
6.63000000E+08	 9.15704757E-01	-1.29751078E+02
6.64000000E+08	 9.16086351E-01	-1.29824442E+02
6.65000000E+08	 9.16580173E-01	-1.29908518E+02
6.66000000E+08	 9.16811076E-01	-1.29975984E+02
6.67000000E+08	 9.17194902E-01	-1.30063299E+02
6.68000000E+08	 9.17368727E-01	-1.30147836E+02
6.69000000E+08	 9.17462186E-01	-1.30229223E+02
6.70000000E+08	 9.17591350E-01	-1.30310832E+02
6.71000000E+08	 9.17603612E-01	-1.30398531E+02
6.72000000E+08	 9.17529983E-01	-1.30470677E+02
6.73000000E+08	 9.17467868E-01	-1.30549384E+02
6.74000000E+08	 9.17270975E-01	-1.30632442E+02
6.75000000E+08	 9.17120221E-01	-1.30707497E+02
6.76000000E+08	 9.16801669E-01	-1.30777836E+02
6.77000000E+08	 9.16679906E-01	-1.30849705E+02
6.78000000E+08	 9.16392769E-01	-1.30911839E+02
6.79000000E+08	 9.16180572E-01	-1.30979362E+02
6.80000000E+08	 9.15831235E-01	-1.31037781E+02
6.81000000E+08	 9.15738810E-01	-1.31101637E+02
6.82000000E+08	 9.15667909E-01	-1.31163263E+02
6.83000000E+08	 9.15612387E-01	-1.31230179E+02
6.84000000E+08	 9.15435771E-01	-1.31296888E+02
6.85000000E+08	 9.15291261E-01	-1.31367414E+02
6.86000000E+08	 9.15061915E-01	-1.31455582E+02
6.87000000E+08	 9.14973028E-01	-1.31537641E+02
6.88000000E+08	 9.14535770E-01	-1.31618328E+02
6.89000000E+08	 9.14018598E-01	-1.31704967E+02
6.90000000E+08	 9.13364517E-01	-1.31792621E+02
6.91000000E+08	 9.12720095E-01	-1.31874439E+02
6.92000000E+08	 9.11795123E-01	-1.31949798E+02
6.93000000E+08	 9.10751772E-01	-1.32023465E+02
6.94000000E+08	 9.09583071E-01	-1.32076782E+02
6.95000000E+08	 9.08436925E-01	-1.32138338E+02
6.96000000E+08	 9.07186504E-01	-1.32178499E+02
6.97000000E+08	 9.06044663E-01	-1.32209672E+02
6.98000000E+08	 9.04730117E-01	-1.32215557E+02
6.99000000E+08	 9.03573803E-01	-1.32218810E+02
7.00000000E+08	 9.02604620E-01	-1.32210664E+02
7.01000000E+08	 9.01648817E-01	-1.32192653E+02
7.02000000E+08	 9.00963136E-01	-1.32168106E+02
7.03000000E+08	 9.00321457E-01	-1.32126819E+02
7.04000000E+08	 9.00071926E-01	-1.32098837E+02
7.05000000E+08	 8.99911899E-01	-1.32067253E+02
7.06000000E+08	 8.99934142E-01	-1.32041790E+02
7.07000000E+08	 9.00072585E-01	-1.32016527E+02
7.08000000E+08	 9.00454702E-01	-1.32006333E+02
7.09000000E+08	 9.00626264E-01	-1.31992903E+02
7.10000000E+08	 9.01073607E-01	-1.31997317E+02
7.11000000E+08	 9.01356319E-01	-1.31999342E+02
7.12000000E+08	 9.01714991E-01	-1.32004572E+02
7.13000000E+08	 9.02146062E-01	-1.32009426E+02
7.14000000E+08	 9.02383918E-01	-1.32015195E+02
7.15000000E+08	 9.02737501E-01	-1.32020666E+02
7.16000000E+08	 9.03364697E-01	-1.32018994E+02
7.17000000E+08	 9.03839072E-01	-1.32036087E+02
7.18000000E+08	 9.04523851E-01	-1.32047187E+02
7.19000000E+08	 9.05259653E-01	-1.32060290E+02
7.20000000E+08	 9.06245541E-01	-1.32080117E+02
7.21000000E+08	 9.07050239E-01	-1.32102145E+02
7.22000000E+08	 9.08084262E-01	-1.32132839E+02
7.23000000E+08	 9.09009784E-01	-1.32179057E+02
7.24000000E+08	 9.10166108E-01	-1.32234146E+02
7.25000000E+08	 9.11095237E-01	-1.32292215E+02
7.26000000E+08	 9.12042503E-01	-1.32376699E+02
7.27000000E+08	 9.12930205E-01	-1.32455824E+02
7.28000000E+08	 9.13548046E-01	-1.32553021E+02
7.29000000E+08	 9.14164455E-01	-1.32641446E+02
7.30000000E+08	 9.14740642E-01	-1.32741105E+02
7.31000000E+08	 9.14951460E-01	-1.32836756E+02
7.32000000E+08	 9.15254338E-01	-1.32948782E+02
7.33000000E+08	 9.15371598E-01	-1.33055715E+02
7.34000000E+08	 9.15282016E-01	-1.33151390E+02
7.35000000E+08	 9.15158643E-01	-1.33260202E+02
7.36000000E+08	 9.14912076E-01	-1.33360909E+02
7.37000000E+08	 9.14385156E-01	-1.33465332E+02
7.38000000E+08	 9.14099807E-01	-1.33558435E+02
7.39000000E+08	 9.13559945E-01	-1.33650914E+02
7.40000000E+08	 9.13087061E-01	-1.33733507E+02
7.41000000E+08	 9.12441948E-01	-1.33820503E+02
7.42000000E+08	 9.11672317E-01	-1.33904341E+02
7.43000000E+08	 9.10956789E-01	-1.33977952E+02
7.44000000E+08	 9.10246812E-01	-1.34043797E+02
7.45000000E+08	 9.09540419E-01	-1.34115821E+02
7.46000000E+08	 9.08674658E-01	-1.34178344E+02
7.47000000E+08	 9.07963632E-01	-1.34242927E+02
7.48000000E+08	 9.07131973E-01	-1.34303038E+02
7.49000000E+08	 9.06344032E-01	-1.34353443E+02
7.50000000E+08	 9.05464736E-01	-1.34403900E+02
7.51000000E+08	 9.04484975E-01	-1.34453629E+02
7.52000000E+08	 9.03465871E-01	-1.34490326E+02
7.53000000E+08	 9.02661822E-01	-1.34521933E+02
7.54000000E+08	 9.01624548E-01	-1.34558764E+02
7.55000000E+08	 9.00802976E-01	-1.34568619E+02
7.56000000E+08	 9.00024986E-01	-1.34589417E+02
7.57000000E+08	 8.99350004E-01	-1.34594140E+02
7.58000000E+08	 8.98765940E-01	-1.34600003E+02
7.59000000E+08	 8.98166715E-01	-1.34600729E+02
7.60000000E+08	 8.97987772E-01	-1.34599523E+02
7.61000000E+08	 8.97640887E-01	-1.34600077E+02
7.62000000E+08	 8.97475527E-01	-1.34602361E+02
7.63000000E+08	 8.97454600E-01	-1.34597272E+02
7.64000000E+08	 8.97636253E-01	-1.34605998E+02
7.65000000E+08	 8.97825877E-01	-1.34620096E+02
7.66000000E+08	 8.98108927E-01	-1.34630679E+02
7.67000000E+08	 8.98337394E-01	-1.34657081E+02
7.68000000E+08	 8.98666289E-01	-1.34691677E+02
7.69000000E+08	 8.98952447E-01	-1.34722407E+02
7.70000000E+08	 8.99337329E-01	-1.34766207E+02
7.71000000E+08	 8.99587531E-01	-1.34807674E+02
7.72000000E+08	 8.99786237E-01	-1.34857099E+02
7.73000000E+08	 9.00150716E-01	-1.34906485E+02
7.74000000E+08	 9.00372977E-01	-1.34958166E+02
7.75000000E+08	 9.00494654E-01	-1.35014860E+02
7.76000000E+08	 9.00651157E-01	-1.35067297E+02
7.77000000E+08	 9.00951428E-01	-1.35128570E+02
7.78000000E+08	 9.01104044E-01	-1.35184183E+02
7.79000000E+08	 9.01174011E-01	-1.35242097E+02
7.80000000E+08	 9.01339019E-01	-1.35291012E+02
7.81000000E+08	 9.01634218E-01	-1.35352830E+02
7.82000000E+08	 9.01732862E-01	-1.35413863E+02
7.83000000E+08	 9.01976372E-01	-1.35487590E+02
7.84000000E+08	 9.02210135E-01	-1.35551977E+02
7.85000000E+08	 9.02435686E-01	-1.35616491E+02
7.86000000E+08	 9.02678048E-01	-1.35690614E+02
7.87000000E+08	 9.02960419E-01	-1.35765231E+02
7.88000000E+08	 9.03197990E-01	-1.35852083E+02
7.89000000E+08	 9.03334417E-01	-1.35931885E+02
7.90000000E+08	 9.03656340E-01	-1.36016956E+02
7.91000000E+08	 9.03771178E-01	-1.36106796E+02
7.92000000E+08	 9.04000690E-01	-1.36204297E+02
7.93000000E+08	 9.04059866E-01	-1.36293506E+02
7.94000000E+08	 9.04115055E-01	-1.36393048E+02
7.95000000E+08	 9.04151714E-01	-1.36499598E+02
7.96000000E+08	 9.04030793E-01	-1.36598763E+02
7.97000000E+08	 9.04014936E-01	-1.36707841E+02
7.98000000E+08	 9.03812041E-01	-1.36827136E+02
7.99000000E+08	 9.03641759E-01	-1.36936640E+02
8.00000000E+08	 9.03410801E-01	-1.37054584E+02
8.01000000E+08	 9.02968993E-01	-1.37154531E+02
8.02000000E+08	 9.02500462E-01	-1.37277742E+02
8.03000000E+08	 9.01951726E-01	-1.37391566E+02
8.04000000E+08	 9.01338276E-01	-1.37505987E+02
8.05000000E+08	 9.00657596E-01	-1.37618518E+02
8.06000000E+08	 8.99792523E-01	-1.37728223E+02
8.07000000E+08	 8.99055940E-01	-1.37842787E+02
8.08000000E+08	 8.98059921E-01	-1.37945846E+02
8.09000000E+08	 8.97011077E-01	-1.38052790E+02
8.10000000E+08	 8.96011365E-01	-1.38156227E+02
8.11000000E+08	 8.95007861E-01	-1.38252204E+02
8.12000000E+08	 8.93865416E-01	-1.38346611E+02
8.13000000E+08	 8.92719066E-01	-1.38428105E+02
8.14000000E+08	 8.91511932E-01	-1.38514075E+02
8.15000000E+08	 8.90174483E-01	-1.38597872E+02
8.16000000E+08	 8.88956607E-01	-1.38671992E+02
8.17000000E+08	 8.87739933E-01	-1.38740719E+02
8.18000000E+08	 8.86501177E-01	-1.38812265E+02
8.19000000E+08	 8.85320242E-01	-1.38872478E+02
8.20000000E+08	 8.84161397E-01	-1.38929394E+02
8.21000000E+08	 8.83062869E-01	-1.38984046E+02
8.22000000E+08	 8.81939862E-01	-1.39038377E+02
8.23000000E+08	 8.80904972E-01	-1.39089356E+02
8.24000000E+08	 8.79698051E-01	-1.39138296E+02
8.25000000E+08	 8.78836481E-01	-1.39190886E+02
8.26000000E+08	 8.77838053E-01	-1.39227806E+02
8.27000000E+08	 8.76874885E-01	-1.39275527E+02
8.28000000E+08	 8.75926032E-01	-1.39322029E+02
8.29000000E+08	 8.74929943E-01	-1.39367601E+02
8.30000000E+08	 8.74041880E-01	-1.39411034E+02
8.31000000E+08	 8.73068715E-01	-1.39458965E+02
8.32000000E+08	 8.72203752E-01	-1.39496823E+02
8.33000000E+08	 8.71276242E-01	-1.39531068E+02
8.34000000E+08	 8.70344300E-01	-1.39569818E+02
8.35000000E+08	 8.69353945E-01	-1.39609356E+02
8.36000000E+08	 8.68392591E-01	-1.39647344E+02
8.37000000E+08	 8.67624697E-01	-1.39670112E+02
8.38000000E+08	 8.66639168E-01	-1.39699204E+02
8.39000000E+08	 8.65805385E-01	-1.39720224E+02
8.40000000E+08	 8.65026937E-01	-1.39742164E+02
8.41000000E+08	 8.64256410E-01	-1.39761736E+02
8.42000000E+08	 8.63441386E-01	-1.39776778E+02
8.43000000E+08	 8.62776611E-01	-1.39781686E+02
8.44000000E+08	 8.62254836E-01	-1.39794161E+02
8.45000000E+08	 8.61668057E-01	-1.39802865E+02
8.46000000E+08	 8.61343430E-01	-1.39819790E+02
8.47000000E+08	 8.60990067E-01	-1.39816872E+02
8.48000000E+08	 8.60615308E-01	-1.39824697E+02
8.49000000E+08	 8.60485970E-01	-1.39836524E+02
8.50000000E+08	 8.60232327E-01	-1.39850853E+02
8.51000000E+08	 8.60303227E-01	-1.39870761E+02
8.52000000E+08	 8.60263976E-01	-1.39889133E+02
8.53000000E+08	 8.60353018E-01	-1.39918310E+02
8.54000000E+08	 8.60359085E-01	-1.39943733E+02
8.55000000E+08	 8.60531610E-01	-1.39978223E+02
8.56000000E+08	 8.60494853E-01	-1.40014708E+02
8.57000000E+08	 8.60558426E-01	-1.40058489E+02
8.58000000E+08	 8.60766059E-01	-1.40104256E+02
8.59000000E+08	 8.60596145E-01	-1.40151228E+02
8.60000000E+08	 8.60680161E-01	-1.40195746E+02
8.61000000E+08	 8.60610465E-01	-1.40250348E+02
8.62000000E+08	 8.60540711E-01	-1.40307696E+02
8.63000000E+08	 8.60343558E-01	-1.40360392E+02
8.64000000E+08	 8.60262124E-01	-1.40419111E+02
8.65000000E+08	 8.60055437E-01	-1.40472591E+02
8.66000000E+08	 8.59700829E-01	-1.40531446E+02
8.67000000E+08	 8.59546832E-01	-1.40576588E+02
8.68000000E+08	 8.59313209E-01	-1.40628427E+02
8.69000000E+08	 8.59016518E-01	-1.40681136E+02
8.70000000E+08	 8.58775705E-01	-1.40730423E+02
8.71000000E+08	 8.58392068E-01	-1.40779796E+02
8.72000000E+08	 8.58314568E-01	-1.40828462E+02
8.73000000E+08	 8.57910251E-01	-1.40878631E+02
8.74000000E+08	 8.57579977E-01	-1.40917690E+02
8.75000000E+08	 8.57322158E-01	-1.40961675E+02
8.76000000E+08	 8.57300385E-01	-1.41004368E+02
8.77000000E+08	 8.56769268E-01	-1.41047494E+02
8.78000000E+08	 8.56807939E-01	-1.41082002E+02
8.79000000E+08	 8.56575073E-01	-1.41126572E+02
8.80000000E+08	 8.56412589E-01	-1.41161596E+02
8.81000000E+08	 8.56160545E-01	-1.41202553E+02
8.82000000E+08	 8.56037850E-01	-1.41239943E+02
8.83000000E+08	 8.55875634E-01	-1.41280893E+02
8.84000000E+08	 8.55635210E-01	-1.41324737E+02
8.85000000E+08	 8.55533302E-01	-1.41365360E+02
8.86000000E+08	 8.55561077E-01	-1.41399077E+02
8.87000000E+08	 8.55573486E-01	-1.41441096E+02
8.88000000E+08	 8.55432478E-01	-1.41473025E+02
8.89000000E+08	 8.55490610E-01	-1.41503123E+02
8.90000000E+08	 8.55540443E-01	-1.41540481E+02
8.91000000E+08	 8.55525347E-01	-1.41589561E+02
8.92000000E+08	 8.55598969E-01	-1.41635809E+02
8.93000000E+08	 8.55610103E-01	-1.41672053E+02
8.94000000E+08	 8.55638031E-01	-1.41712899E+02
8.95000000E+08	 8.55807342E-01	-1.41758376E+02
8.96000000E+08	 8.55832180E-01	-1.41807978E+02
8.97000000E+08	 8.55928680E-01	-1.41850397E+02
8.98000000E+08	 8.56066660E-01	-1.41900945E+02
8.99000000E+08	 8.56189044E-01	-1.41954349E+02
9.00000000E+08	 8.56225975E-01	-1.42007944E+02
9.01000000E+08	 8.56400753E-01	-1.42057678E+02
9.02000000E+08	 8.56373212E-01	-1.42123522E+02
9.03000000E+08	 8.56473900E-01	-1.42175487E+02
9.04000000E+08	 8.56443265E-01	-1.42244391E+02
9.05000000E+08	 8.56426562E-01	-1.42304127E+02
9.06000000E+08	 8.56378918E-01	-1.42363491E+02
9.07000000E+08	 8.56282993E-01	-1.42426136E+02
9.08000000E+08	 8.56047547E-01	-1.42489216E+02
9.09000000E+08	 8.55951877E-01	-1.42549826E+02
9.10000000E+08	 8.55638484E-01	-1.42625508E+02
9.11000000E+08	 8.55417980E-01	-1.42687208E+02
9.12000000E+08	 8.55061366E-01	-1.42735899E+02
9.13000000E+08	 8.54779660E-01	-1.42805182E+02
9.14000000E+08	 8.54281171E-01	-1.42848420E+02
9.15000000E+08	 8.53792906E-01	-1.42907018E+02
9.16000000E+08	 8.53364701E-01	-1.42954017E+02
9.17000000E+08	 8.52974651E-01	-1.42991045E+02
9.18000000E+08	 8.52415062E-01	-1.43037590E+02
9.19000000E+08	 8.51943045E-01	-1.43073287E+02
9.20000000E+08	 8.51337486E-01	-1.43102935E+02
9.21000000E+08	 8.50845611E-01	-1.43131232E+02
9.22000000E+08	 8.50496460E-01	-1.43151507E+02
9.23000000E+08	 8.50023165E-01	-1.43168156E+02
9.24000000E+08	 8.49554639E-01	-1.43182762E+02
9.25000000E+08	 8.49267152E-01	-1.43190562E+02
9.26000000E+08	 8.48939251E-01	-1.43200052E+02
9.27000000E+08	 8.48689872E-01	-1.43203170E+02
9.28000000E+08	 8.48505382E-01	-1.43208881E+02
9.29000000E+08	 8.48358995E-01	-1.43200996E+02
9.30000000E+08	 8.48317193E-01	-1.43206040E+02
9.31000000E+08	 8.48313035E-01	-1.43192148E+02
9.32000000E+08	 8.48237919E-01	-1.43187426E+02
9.33000000E+08	 8.48427647E-01	-1.43181115E+02
9.34000000E+08	 8.48541868E-01	-1.43182399E+02
9.35000000E+08	 8.48820919E-01	-1.43173893E+02
9.36000000E+08	 8.49234730E-01	-1.43168344E+02
9.37000000E+08	 8.49601724E-01	-1.43164297E+02
9.38000000E+08	 8.50062874E-01	-1.43163392E+02
9.39000000E+08	 8.50693786E-01	-1.43168726E+02
9.40000000E+08	 8.51188088E-01	-1.43164682E+02
9.41000000E+08	 8.51760561E-01	-1.43173362E+02
9.42000000E+08	 8.52327231E-01	-1.43189540E+02
9.43000000E+08	 8.53154376E-01	-1.43209964E+02
9.44000000E+08	 8.53827183E-01	-1.43221333E+02
9.45000000E+08	 8.54628617E-01	-1.43243751E+02
9.46000000E+08	 8.55426094E-01	-1.43280255E+02
9.47000000E+08	 8.56056146E-01	-1.43315615E+02
9.48000000E+08	 8.56798568E-01	-1.43353466E+02
9.49000000E+08	 8.57467433E-01	-1.43390805E+02
9.50000000E+08	 8.58120124E-01	-1.43440720E+02
9.51000000E+08	 8.58831097E-01	-1.43485261E+02
9.52000000E+08	 8.59366638E-01	-1.43539897E+02
9.53000000E+08	 8.59916069E-01	-1.43589677E+02
9.54000000E+08	 8.60475205E-01	-1.43638913E+02
9.55000000E+08	 8.60996636E-01	-1.43697293E+02
9.56000000E+08	 8.61458815E-01	-1.43751571E+02
9.57000000E+08	 8.61785284E-01	-1.43813239E+02
9.58000000E+08	 8.62145487E-01	-1.43863549E+02
9.59000000E+08	 8.62538957E-01	-1.43921577E+02
9.60000000E+08	 8.62762385E-01	-1.43975768E+02
9.61000000E+08	 8.63016064E-01	-1.44026694E+02
9.62000000E+08	 8.63328812E-01	-1.44079223E+02
9.63000000E+08	 8.63407264E-01	-1.44127498E+02
9.64000000E+08	 8.63637250E-01	-1.44176393E+02
9.65000000E+08	 8.63745522E-01	-1.44224059E+02
9.66000000E+08	 8.63960487E-01	-1.44273452E+02
9.67000000E+08	 8.64084233E-01	-1.44309322E+02
9.68000000E+08	 8.64163748E-01	-1.44353935E+02
9.69000000E+08	 8.64385011E-01	-1.44387827E+02
9.70000000E+08	 8.64433826E-01	-1.44420023E+02
9.71000000E+08	 8.64606065E-01	-1.44448522E+02
9.72000000E+08	 8.64810407E-01	-1.44483124E+02
9.73000000E+08	 8.65018113E-01	-1.44511348E+02
9.74000000E+08	 8.65229653E-01	-1.44541873E+02
9.75000000E+08	 8.65604642E-01	-1.44564888E+02
9.76000000E+08	 8.65734013E-01	-1.44594746E+02
9.77000000E+08	 8.66228223E-01	-1.44621699E+02
9.78000000E+08	 8.66626671E-01	-1.44649773E+02
9.79000000E+08	 8.66939359E-01	-1.44683420E+02
9.80000000E+08	 8.67402464E-01	-1.44709948E+02
9.81000000E+08	 8.67842052E-01	-1.44739853E+02
9.82000000E+08	 8.68322439E-01	-1.44770457E+02
9.83000000E+08	 8.68826330E-01	-1.44806412E+02
9.84000000E+08	 8.69379288E-01	-1.44846915E+02
9.85000000E+08	 8.70039876E-01	-1.44891516E+02
9.86000000E+08	 8.70508686E-01	-1.44924221E+02
9.87000000E+08	 8.71007845E-01	-1.44977176E+02
9.88000000E+08	 8.71528288E-01	-1.45017529E+02
9.89000000E+08	 8.72153940E-01	-1.45070428E+02
9.90000000E+08	 8.72735292E-01	-1.45121177E+02
9.91000000E+08	 8.73244343E-01	-1.45174630E+02
9.92000000E+08	 8.73814892E-01	-1.45229532E+02
9.93000000E+08	 8.74247588E-01	-1.45283755E+02
9.94000000E+08	 8.74834908E-01	-1.45343148E+02
9.95000000E+08	 8.75292354E-01	-1.45397451E+02
9.96000000E+08	 8.75758664E-01	-1.45467001E+02
9.97000000E+08	 8.76105905E-01	-1.45529948E+02
9.98000000E+08	 8.76444026E-01	-1.45595292E+02
9.99000000E+08	 8.76842046E-01	-1.45653050E+02
1.00000000E+09	 8.77215409E-01	-1.45726303E+02
1.00100000E+09	 8.77519648E-01	-1.45791162E+02
1.00200000E+09	 8.77851791E-01	-1.45850437E+02
1.00300000E+09	 8.78132851E-01	-1.45926728E+02
1.00400000E+09	 8.78328303E-01	-1.45996362E+02
1.00500000E+09	 8.78613903E-01	-1.46057235E+02
1.00600000E+09	 8.78687280E-01	-1.46129025E+02
1.00700000E+09	 8.78849883E-01	-1.46193634E+02
1.00800000E+09	 8.79031896E-01	-1.46265385E+02
1.00900000E+09	 8.79018930E-01	-1.46331034E+02
1.01000000E+09	 8.79057807E-01	-1.46401944E+02
1.01100000E+09	 8.79081725E-01	-1.46467127E+02
1.01200000E+09	 8.79101392E-01	-1.46532942E+02
1.01300000E+09	 8.79074007E-01	-1.46600746E+02
1.01400000E+09	 8.79010246E-01	-1.46669834E+02
1.01500000E+09	 8.78992768E-01	-1.46734513E+02
1.01600000E+09	 8.78907594E-01	-1.46803025E+02
1.01700000E+09	 8.78836434E-01	-1.46865110E+02
1.01800000E+09	 8.78675397E-01	-1.46931390E+02
1.01900000E+09	 8.78502121E-01	-1.46997255E+02
1.02000000E+09	 8.78312544E-01	-1.47054861E+02
1.02100000E+09	 8.78193084E-01	-1.47115077E+02
1.02200000E+09	 8.78033040E-01	-1.47176780E+02
1.02300000E+09	 8.77814368E-01	-1.47236353E+02
1.02400000E+09	 8.77500047E-01	-1.47290875E+02
1.02500000E+09	 8.77459892E-01	-1.47349239E+02
1.02600000E+09	 8.77155515E-01	-1.47408448E+02
1.02700000E+09	 8.76805265E-01	-1.47470324E+02
1.02800000E+09	 8.76502590E-01	-1.47525170E+02
1.02900000E+09	 8.76231209E-01	-1.47571725E+02
1.03000000E+09	 8.75908038E-01	-1.47624203E+02
1.03100000E+09	 8.75689993E-01	-1.47681791E+02
1.03200000E+09	 8.75301533E-01	-1.47735072E+02
1.03300000E+09	 8.75027567E-01	-1.47783907E+02
1.03400000E+09	 8.74575854E-01	-1.47840747E+02
1.03500000E+09	 8.74290417E-01	-1.47888682E+02
1.03600000E+09	 8.73898709E-01	-1.47938645E+02
1.03700000E+09	 8.73550670E-01	-1.47987931E+02
1.03800000E+09	 8.73220957E-01	-1.48031910E+02
1.03900000E+09	 8.72821834E-01	-1.48077807E+02
1.04000000E+09	 8.72448944E-01	-1.48117324E+02
1.04100000E+09	 8.71972641E-01	-1.48156815E+02
1.04200000E+09	 8.71658953E-01	-1.48203783E+02
1.04300000E+09	 8.71323611E-01	-1.48242656E+02
1.04400000E+09	 8.70775798E-01	-1.48289661E+02
1.04500000E+09	 8.70401805E-01	-1.48318198E+02
1.04600000E+09	 8.70076439E-01	-1.48364341E+02
1.04700000E+09	 8.69674973E-01	-1.48394402E+02
1.04800000E+09	 8.69412301E-01	-1.48432745E+02
1.04900000E+09	 8.69071108E-01	-1.48463586E+02
1.05000000E+09	 8.68767495E-01	-1.48497710E+02
1.05100000E+09	 8.68375707E-01	-1.48538549E+02
1.05200000E+09	 8.68106674E-01	-1.48572028E+02
1.05300000E+09	 8.67820210E-01	-1.48606872E+02
1.05400000E+09	 8.67580689E-01	-1.48651925E+02
1.05500000E+09	 8.67188909E-01	-1.48688119E+02
1.05600000E+09	 8.66924417E-01	-1.48722118E+02
1.05700000E+09	 8.66705089E-01	-1.48753866E+02
1.05800000E+09	 8.66403219E-01	-1.48806466E+02
1.05900000E+09	 8.66166595E-01	-1.48845509E+02
1.06000000E+09	 8.65916902E-01	-1.48879135E+02
1.06100000E+09	 8.65675793E-01	-1.48926607E+02
1.06200000E+09	 8.65344521E-01	-1.48961170E+02
1.06300000E+09	 8.65034333E-01	-1.49005391E+02
1.06400000E+09	 8.64739116E-01	-1.49043017E+02
1.06500000E+09	 8.64472167E-01	-1.49088151E+02
1.06600000E+09	 8.64119617E-01	-1.49131537E+02
1.06700000E+09	 8.63805241E-01	-1.49175852E+02
1.06800000E+09	 8.63530998E-01	-1.49226221E+02
1.06900000E+09	 8.63274518E-01	-1.49254264E+02
1.07000000E+09	 8.62889523E-01	-1.49313256E+02
1.07100000E+09	 8.62365890E-01	-1.49349120E+02
1.07200000E+09	 8.62095107E-01	-1.49392014E+02
1.07300000E+09	 8.61732675E-01	-1.49433301E+02
1.07400000E+09	 8.61201935E-01	-1.49487071E+02
1.07500000E+09	 8.60914751E-01	-1.49528637E+02
1.07600000E+09	 8.60416427E-01	-1.49566773E+02
1.07700000E+09	 8.59976905E-01	-1.49614015E+02
1.07800000E+09	 8.59426263E-01	-1.49660274E+02
1.07900000E+09	 8.59040385E-01	-1.49690213E+02
1.08000000E+09	 8.58532659E-01	-1.49734390E+02
1.08100000E+09	 8.57997307E-01	-1.49767817E+02
1.08200000E+09	 8.57490609E-01	-1.49814189E+02
1.08300000E+09	 8.56940792E-01	-1.49847442E+02
1.08400000E+09	 8.56342148E-01	-1.49889981E+02
1.08500000E+09	 8.55900146E-01	-1.49933680E+02
1.08600000E+09	 8.55508595E-01	-1.49963524E+02
1.08700000E+09	 8.54892795E-01	-1.49995232E+02
1.08800000E+09	 8.54405317E-01	-1.50038951E+02
1.08900000E+09	 8.53696980E-01	-1.50071331E+02
1.09000000E+09	 8.53210333E-01	-1.50097801E+02
1.09100000E+09	 8.52638782E-01	-1.50131091E+02
1.09200000E+09	 8.52168770E-01	-1.50148670E+02
1.09300000E+09	 8.51654489E-01	-1.50182940E+02
1.09400000E+09	 8.51100777E-01	-1.50213147E+02
1.09500000E+09	 8.50695272E-01	-1.50243596E+02
1.09600000E+09	 8.50277293E-01	-1.50276585E+02
1.09700000E+09	 8.49626034E-01	-1.50298339E+02
1.09800000E+09	 8.49230391E-01	-1.50316489E+02
1.09900000E+09	 8.48798131E-01	-1.50349940E+02
1.10000000E+09	 8.48378987E-01	-1.50379432E+02
1.10100000E+09	 8.47884721E-01	-1.50395346E+02
1.10200000E+09	 8.47486913E-01	-1.50423878E+02
1.10300000E+09	 8.47053115E-01	-1.50454517E+02
1.10400000E+09	 8.46542590E-01	-1.50471186E+02
1.10500000E+09	 8.46366054E-01	-1.50500260E+02
1.10600000E+09	 8.45804426E-01	-1.50522874E+02
1.10700000E+09	 8.45534140E-01	-1.50554519E+02
1.10800000E+09	 8.45129222E-01	-1.50584685E+02
1.10900000E+09	 8.44825873E-01	-1.50606165E+02
1.11000000E+09	 8.44507676E-01	-1.50629195E+02
1.11100000E+09	 8.44146434E-01	-1.50656000E+02
1.11200000E+09	 8.43731452E-01	-1.50682540E+02
1.11300000E+09	 8.43504662E-01	-1.50715621E+02
1.11400000E+09	 8.43071222E-01	-1.50740731E+02
1.11500000E+09	 8.42661651E-01	-1.50769494E+02
1.11600000E+09	 8.42261254E-01	-1.50792521E+02
1.11700000E+09	 8.42059838E-01	-1.50823761E+02
1.11800000E+09	 8.41700378E-01	-1.50838863E+02
1.11900000E+09	 8.41519814E-01	-1.50870419E+02
1.12000000E+09	 8.41002068E-01	-1.50894763E+02
1.12100000E+09	 8.40743772E-01	-1.50921932E+02
1.12200000E+09	 8.40411959E-01	-1.50951921E+02
1.12300000E+09	 8.40153004E-01	-1.50973073E+02
1.12400000E+09	 8.39836397E-01	-1.50995101E+02
1.12500000E+09	 8.39494372E-01	-1.51031633E+02
1.12600000E+09	 8.39322204E-01	-1.51047305E+02
1.12700000E+09	 8.38869093E-01	-1.51075550E+02
1.12800000E+09	 8.38726532E-01	-1.51103086E+02
1.12900000E+09	 8.38348787E-01	-1.51126157E+02
1.13000000E+09	 8.38211566E-01	-1.51164572E+02
1.13100000E+09	 8.37850345E-01	-1.51188887E+02
1.13200000E+09	 8.37628612E-01	-1.51216593E+02
1.13300000E+09	 8.37349230E-01	-1.51249191E+02
1.13400000E+09	 8.37234487E-01	-1.51274755E+02
1.13500000E+09	 8.36897673E-01	-1.51311172E+02
1.13600000E+09	 8.36591781E-01	-1.51332264E+02
1.13700000E+09	 8.36359944E-01	-1.51364090E+02
1.13800000E+09	 8.36189524E-01	-1.51403553E+02
1.13900000E+09	 8.35908104E-01	-1.51427647E+02
1.14000000E+09	 8.35633396E-01	-1.51452530E+02
1.14100000E+09	 8.35384420E-01	-1.51488986E+02
1.14200000E+09	 8.35238176E-01	-1.51525636E+02
1.14300000E+09	 8.34869569E-01	-1.51558186E+02
1.14400000E+09	 8.34689200E-01	-1.51589560E+02
1.14500000E+09	 8.34305581E-01	-1.51616535E+02
1.14600000E+09	 8.34031961E-01	-1.51652125E+02
1.14700000E+09	 8.33868656E-01	-1.51680473E+02
1.14800000E+09	 8.33614450E-01	-1.51714124E+02
1.14900000E+09	 8.33309062E-01	-1.51735911E+02
1.15000000E+09	 8.33091870E-01	-1.51768646E+02
1.15100000E+09	 8.32827895E-01	-1.51793178E+02
1.15200000E+09	 8.32592024E-01	-1.51819886E+02
1.15300000E+09	 8.32515108E-01	-1.51849600E+02
1.15400000E+09	 8.32123451E-01	-1.51879300E+02
1.15500000E+09	 8.32006432E-01	-1.51907625E+02
1.15600000E+09	 8.31707090E-01	-1.51936153E+02
1.15700000E+09	 8.31530458E-01	-1.51954056E+02
1.15800000E+09	 8.31369970E-01	-1.51983009E+02
1.15900000E+09	 8.31045924E-01	-1.52002132E+02
1.16000000E+09	 8.30939430E-01	-1.52034671E+02
1.16100000E+09	 8.30660278E-01	-1.52051228E+02
1.16200000E+09	 8.30544893E-01	-1.52077298E+02
1.16300000E+09	 8.30489818E-01	-1.52101573E+02
1.16400000E+09	 8.30258249E-01	-1.52122504E+02
1.16500000E+09	 8.30139146E-01	-1.52141134E+02
1.16600000E+09	 8.30084810E-01	-1.52171035E+02
1.16700000E+09	 8.30000281E-01	-1.52187841E+02
1.16800000E+09	 8.29916965E-01	-1.52205730E+02
1.16900000E+09	 8.29861659E-01	-1.52230966E+02
1.17000000E+09	 8.29712707E-01	-1.52256161E+02
1.17100000E+09	 8.29688731E-01	-1.52276658E+02
1.17200000E+09	 8.29648751E-01	-1.52295177E+02
1.17300000E+09	 8.29626298E-01	-1.52317314E+02
1.17400000E+09	 8.29665352E-01	-1.52342563E+02
1.17500000E+09	 8.29661483E-01	-1.52366890E+02
1.17600000E+09	 8.29749517E-01	-1.52393045E+02
1.17700000E+09	 8.29655327E-01	-1.52414847E+02
1.17800000E+09	 8.29772567E-01	-1.52441448E+02
1.17900000E+09	 8.29899860E-01	-1.52470564E+02
1.18000000E+09	 8.29917376E-01	-1.52498680E+02
1.18100000E+09	 8.29882981E-01	-1.52520672E+02
1.18200000E+09	 8.30051522E-01	-1.52548796E+02
1.18300000E+09	 8.30039377E-01	-1.52569072E+02
1.18400000E+09	 8.30166478E-01	-1.52601800E+02
1.18500000E+09	 8.30202397E-01	-1.52629835E+02
1.18600000E+09	 8.30329726E-01	-1.52659467E+02
1.18700000E+09	 8.30476800E-01	-1.52689859E+02
1.18800000E+09	 8.30566255E-01	-1.52716539E+02
1.18900000E+09	 8.30554352E-01	-1.52752973E+02
1.19000000E+09	 8.30825262E-01	-1.52778842E+02
1.19100000E+09	 8.30892021E-01	-1.52811799E+02
1.19200000E+09	 8.30935732E-01	-1.52843151E+02
1.19300000E+09	 8.31148976E-01	-1.52871731E+02
1.19400000E+09	 8.31415846E-01	-1.52901926E+02
1.19500000E+09	 8.31545681E-01	-1.52940744E+02
1.19600000E+09	 8.31554115E-01	-1.52968802E+02
1.19700000E+09	 8.31833478E-01	-1.52997055E+02
1.19800000E+09	 8.32001262E-01	-1.53036413E+02
1.19900000E+09	 8.32152801E-01	-1.53066142E+02
1.20000000E+09	 8.32412511E-01	-1.53104749E+02
1.20100000E+09	 8.32579877E-01	-1.53139072E+02
1.20200000E+09	 8.32660741E-01	-1.53172343E+02
1.20300000E+09	 8.32848828E-01	-1.53207390E+02
1.20400000E+09	 8.33078594E-01	-1.53237181E+02
1.20500000E+09	 8.33156349E-01	-1.53276292E+02
1.20600000E+09	 8.33417381E-01	-1.53314314E+02
1.20700000E+09	 8.33745987E-01	-1.53348399E+02
1.20800000E+09	 8.33922524E-01	-1.53387986E+02
1.20900000E+09	 8.34121910E-01	-1.53420684E+02
1.21000000E+09	 8.34207625E-01	-1.53458817E+02
1.21100000E+09	 8.34532659E-01	-1.53497913E+02
1.21200000E+09	 8.34654040E-01	-1.53543927E+02
1.21300000E+09	 8.34788997E-01	-1.53574131E+02
1.21400000E+09	 8.35103111E-01	-1.53610954E+02
1.21500000E+09	 8.35058079E-01	-1.53658270E+02
1.21600000E+09	 8.35416328E-01	-1.53700757E+02
1.21700000E+09	 8.35504315E-01	-1.53735179E+02
1.21800000E+09	 8.35701105E-01	-1.53778847E+02
1.21900000E+09	 8.35732889E-01	-1.53824773E+02
1.22000000E+09	 8.35817527E-01	-1.53867388E+02
1.22100000E+09	 8.36016241E-01	-1.53893365E+02
1.22200000E+09	 8.36186067E-01	-1.53944763E+02
1.22300000E+09	 8.36256067E-01	-1.53987038E+02
1.22400000E+09	 8.36392638E-01	-1.54022094E+02
1.22500000E+09	 8.36408898E-01	-1.54060627E+02
1.22600000E+09	 8.36480179E-01	-1.54103908E+02
1.22700000E+09	 8.36631812E-01	-1.54147632E+02
1.22800000E+09	 8.36736214E-01	-1.54184883E+02
1.22900000E+09	 8.36770081E-01	-1.54223218E+02
1.23000000E+09	 8.36771038E-01	-1.54260384E+02
1.23100000E+09	 8.36842986E-01	-1.54297363E+02
1.23200000E+09	 8.36739672E-01	-1.54323833E+02
1.23300000E+09	 8.36878944E-01	-1.54364793E+02
1.23400000E+09	 8.36917587E-01	-1.54399555E+02
1.23500000E+09	 8.36996273E-01	-1.54438113E+02
1.23600000E+09	 8.37031543E-01	-1.54464498E+02
1.23700000E+09	 8.37117336E-01	-1.54502424E+02
1.23800000E+09	 8.37231068E-01	-1.54532645E+02
1.23900000E+09	 8.37212482E-01	-1.54562333E+02
1.24000000E+09	 8.37229837E-01	-1.54586205E+02
1.24100000E+09	 8.37307787E-01	-1.54620368E+02
1.24200000E+09	 8.37282054E-01	-1.54643467E+02
1.24300000E+09	 8.37348657E-01	-1.54675828E+02
1.24400000E+09	 8.37435485E-01	-1.54704218E+02
1.24500000E+09	 8.37560507E-01	-1.54723830E+02
1.24600000E+09	 8.37658477E-01	-1.54752406E+02
1.24700000E+09	 8.37744110E-01	-1.54775611E+02
1.24800000E+09	 8.37861817E-01	-1.54796465E+02
1.24900000E+09	 8.37882085E-01	-1.54820450E+02
1.25000000E+09	 8.37929306E-01	-1.54846254E+02
1.25100000E+09	 8.38210903E-01	-1.54870781E+02
1.25200000E+09	 8.38340066E-01	-1.54890740E+02
1.25300000E+09	 8.38358361E-01	-1.54911224E+02
1.25400000E+09	 8.38537358E-01	-1.54938061E+02
1.25500000E+09	 8.38765777E-01	-1.54954948E+02
1.25600000E+09	 8.38915966E-01	-1.54982396E+02
1.25700000E+09	 8.39055861E-01	-1.55008521E+02
1.25800000E+09	 8.39283418E-01	-1.55026353E+02
1.25900000E+09	 8.39427723E-01	-1.55051866E+02
1.26000000E+09	 8.39582360E-01	-1.55070300E+02
1.26100000E+09	 8.39819408E-01	-1.55089560E+02
1.26200000E+09	 8.40005991E-01	-1.55114813E+02
1.26300000E+09	 8.40173252E-01	-1.55136975E+02
1.26400000E+09	 8.40472911E-01	-1.55156372E+02
1.26500000E+09	 8.40645243E-01	-1.55175936E+02
1.26600000E+09	 8.40853488E-01	-1.55197839E+02
1.26700000E+09	 8.41141994E-01	-1.55227701E+02
1.26800000E+09	 8.41236920E-01	-1.55248144E+02
1.26900000E+09	 8.41520327E-01	-1.55268525E+02
1.27000000E+09	 8.41854620E-01	-1.55296668E+02
1.27100000E+09	 8.41979375E-01	-1.55320431E+02
1.27200000E+09	 8.42251361E-01	-1.55341595E+02
1.27300000E+09	 8.42478244E-01	-1.55360668E+02
1.27400000E+09	 8.42722306E-01	-1.55397774E+02
1.27500000E+09	 8.42961144E-01	-1.55417041E+02
1.27600000E+09	 8.43193914E-01	-1.55444504E+02
1.27700000E+09	 8.43450870E-01	-1.55470226E+02
1.27800000E+09	 8.43647167E-01	-1.55497001E+02
1.27900000E+09	 8.43913977E-01	-1.55520344E+02
1.28000000E+09	 8.44059160E-01	-1.55542519E+02
1.28100000E+09	 8.44349519E-01	-1.55570295E+02
1.28200000E+09	 8.44541487E-01	-1.55595670E+02
1.28300000E+09	 8.44785368E-01	-1.55633457E+02
1.28400000E+09	 8.45120649E-01	-1.55659306E+02
1.28500000E+09	 8.45332327E-01	-1.55683141E+02
1.28600000E+09	 8.45477615E-01	-1.55714824E+02
1.28700000E+09	 8.45700331E-01	-1.55741910E+02
1.28800000E+09	 8.45820467E-01	-1.55776078E+02
1.28900000E+09	 8.46061618E-01	-1.55804091E+02
1.29000000E+09	 8.46313653E-01	-1.55828692E+02
1.29100000E+09	 8.46373884E-01	-1.55863627E+02
1.29200000E+09	 8.46502449E-01	-1.55895972E+02
1.29300000E+09	 8.46770755E-01	-1.55917728E+02
1.29400000E+09	 8.46893426E-01	-1.55952300E+02
1.29500000E+09	 8.47003147E-01	-1.55979917E+02
1.29600000E+09	 8.47194204E-01	-1.56009723E+02
1.29700000E+09	 8.47238265E-01	-1.56045586E+02
1.29800000E+09	 8.47332519E-01	-1.56072048E+02
1.29900000E+09	 8.47479542E-01	-1.56094947E+02
1.30000000E+09	 8.47681646E-01	-1.56123397E+02
1.30100000E+09	 8.47609389E-01	-1.56145784E+02
1.30200000E+09	 8.47786863E-01	-1.56179407E+02
1.30300000E+09	 8.47862001E-01	-1.56203878E+02
1.30400000E+09	 8.47897493E-01	-1.56233098E+02
1.30500000E+09	 8.47948090E-01	-1.56251462E+02
1.30600000E+09	 8.48100879E-01	-1.56281174E+02
1.30700000E+09	 8.48090627E-01	-1.56302013E+02
1.30800000E+09	 8.48074222E-01	-1.56324293E+02
1.30900000E+09	 8.48228285E-01	-1.56354705E+02
1.31000000E+09	 8.48253528E-01	-1.56382817E+02
1.31100000E+09	 8.48223540E-01	-1.56405113E+02
1.31200000E+09	 8.48309386E-01	-1.56425680E+02
1.31300000E+09	 8.48274743E-01	-1.56436646E+02
1.31400000E+09	 8.48295699E-01	-1.56471985E+02
1.31500000E+09	 8.48354554E-01	-1.56495223E+02
1.31600000E+09	 8.48234898E-01	-1.56522104E+02
1.31700000E+09	 8.48495072E-01	-1.56542039E+02
1.31800000E+09	 8.48390897E-01	-1.56565062E+02
1.31900000E+09	 8.48515172E-01	-1.56576657E+02
1.32000000E+09	 8.48560373E-01	-1.56597781E+02
1.32100000E+09	 8.48625542E-01	-1.56619919E+02
1.32200000E+09	 8.48462084E-01	-1.56628939E+02
1.32300000E+09	 8.48531861E-01	-1.56650137E+02
1.32400000E+09	 8.48544804E-01	-1.56669715E+02
1.32500000E+09	 8.48645811E-01	-1.56690070E+02
1.32600000E+09	 8.48527650E-01	-1.56701538E+02
1.32700000E+09	 8.48641376E-01	-1.56718738E+02
1.32800000E+09	 8.48740139E-01	-1.56731294E+02
1.32900000E+09	 8.48812718E-01	-1.56753902E+02
1.33000000E+09	 8.48701810E-01	-1.56755681E+02
1.33100000E+09	 8.48828455E-01	-1.56775020E+02
1.33200000E+09	 8.48983163E-01	-1.56789944E+02
1.33300000E+09	 8.48940665E-01	-1.56814904E+02
1.33400000E+09	 8.48977883E-01	-1.56816604E+02
1.33500000E+09	 8.49190228E-01	-1.56840534E+02
1.33600000E+09	 8.49227490E-01	-1.56863257E+02
1.33700000E+09	 8.49289458E-01	-1.56865902E+02
1.33800000E+09	 8.49348364E-01	-1.56879864E+02
1.33900000E+09	 8.49253666E-01	-1.56901285E+02
1.34000000E+09	 8.49539376E-01	-1.56913633E+02
1.34100000E+09	 8.49561886E-01	-1.56926250E+02
1.34200000E+09	 8.49741861E-01	-1.56944283E+02
1.34300000E+09	 8.49804444E-01	-1.56965237E+02
1.34400000E+09	 8.49795840E-01	-1.56979728E+02
1.34500000E+09	 8.49881554E-01	-1.56999984E+02
1.34600000E+09	 8.49981671E-01	-1.57011121E+02
1.34700000E+09	 8.50046240E-01	-1.57034131E+02
1.34800000E+09	 8.50132184E-01	-1.57050062E+02
1.34900000E+09	 8.50231412E-01	-1.57070154E+02
1.35000000E+09	 8.50228191E-01	-1.57085242E+02
1.35100000E+09	 8.50409000E-01	-1.57102313E+02
1.35200000E+09	 8.50367321E-01	-1.57116686E+02
1.35300000E+09	 8.50506396E-01	-1.57140941E+02
1.35400000E+09	 8.50610175E-01	-1.57158735E+02
1.35500000E+09	 8.50691411E-01	-1.57189363E+02
1.35600000E+09	 8.50551440E-01	-1.57193454E+02
1.35700000E+09	 8.50733928E-01	-1.57220135E+02
1.35800000E+09	 8.50729421E-01	-1.57248035E+02
1.35900000E+09	 8.50684815E-01	-1.57262496E+02
1.36000000E+09	 8.50751249E-01	-1.57286057E+02
1.36100000E+09	 8.50873903E-01	-1.57307771E+02
1.36200000E+09	 8.50937685E-01	-1.57322912E+02
1.36300000E+09	 8.50809964E-01	-1.57350415E+02
1.36400000E+09	 8.50816195E-01	-1.57368543E+02
1.36500000E+09	 8.50822367E-01	-1.57396267E+02
1.36600000E+09	 8.50955040E-01	-1.57416499E+02
1.36700000E+09	 8.50761098E-01	-1.57440050E+02
1.36800000E+09	 8.50681317E-01	-1.57459764E+02
1.36900000E+09	 8.50630332E-01	-1.57481268E+02
1.37000000E+09	 8.50693689E-01	-1.57506755E+02
1.37100000E+09	 8.50540047E-01	-1.57526811E+02
1.37200000E+09	 8.50467890E-01	-1.57546617E+02
1.37300000E+09	 8.50472219E-01	-1.57578692E+02
1.37400000E+09	 8.50415808E-01	-1.57592460E+02
1.37500000E+09	 8.50230815E-01	-1.57618066E+02
1.37600000E+09	 8.50181353E-01	-1.57636437E+02
1.37700000E+09	 8.50076619E-01	-1.57662316E+02
1.37800000E+09	 8.49949715E-01	-1.57686065E+02
1.37900000E+09	 8.49822198E-01	-1.57704164E+02
1.38000000E+09	 8.49754328E-01	-1.57720576E+02
1.38100000E+09	 8.49650341E-01	-1.57749566E+02
1.38200000E+09	 8.49451236E-01	-1.57767963E+02
1.38300000E+09	 8.49356289E-01	-1.57785071E+02
1.38400000E+09	 8.49165714E-01	-1.57809970E+02
1.38500000E+09	 8.49072663E-01	-1.57828009E+02
1.38600000E+09	 8.48870513E-01	-1.57846683E+02
1.38700000E+09	 8.48755048E-01	-1.57865107E+02
1.38800000E+09	 8.48664132E-01	-1.57887362E+02
1.38900000E+09	 8.48534793E-01	-1.57911021E+02
1.39000000E+09	 8.48293411E-01	-1.57925084E+02
1.39100000E+09	 8.48090227E-01	-1.57937345E+02
1.39200000E+09	 8.48012469E-01	-1.57953333E+02
1.39300000E+09	 8.47827936E-01	-1.57978051E+02
1.39400000E+09	 8.47719898E-01	-1.57990384E+02
1.39500000E+09	 8.47504155E-01	-1.58003308E+02
1.39600000E+09	 8.47403083E-01	-1.58019012E+02
1.39700000E+09	 8.47216536E-01	-1.58032969E+02
1.39800000E+09	 8.46999253E-01	-1.58051613E+02
1.39900000E+09	 8.46924309E-01	-1.58068358E+02
1.40000000E+09	 8.46668777E-01	-1.58086354E+02
1.40100000E+09	 8.46448776E-01	-1.58095940E+02
1.40200000E+09	 8.46254493E-01	-1.58110261E+02
1.40300000E+09	 8.46034985E-01	-1.58119097E+02
1.40400000E+09	 8.45956437E-01	-1.58135154E+02
1.40500000E+09	 8.45680014E-01	-1.58145664E+02
1.40600000E+09	 8.45564705E-01	-1.58166122E+02
1.40700000E+09	 8.45408780E-01	-1.58163351E+02
1.40800000E+09	 8.45124860E-01	-1.58187112E+02
1.40900000E+09	 8.44999732E-01	-1.58197860E+02
1.41000000E+09	 8.44857700E-01	-1.58200092E+02
1.41100000E+09	 8.44652534E-01	-1.58215486E+02
1.41200000E+09	 8.44486473E-01	-1.58224178E+02
1.41300000E+09	 8.44325123E-01	-1.58241170E+02
1.41400000E+09	 8.44181060E-01	-1.58249450E+02
1.41500000E+09	 8.43959910E-01	-1.58260765E+02
1.41600000E+09	 8.43896235E-01	-1.58272180E+02
1.41700000E+09	 8.43644404E-01	-1.58281413E+02
1.41800000E+09	 8.43500680E-01	-1.58288648E+02
1.41900000E+09	 8.43263491E-01	-1.58291891E+02
1.42000000E+09	 8.43124883E-01	-1.58315895E+02
1.42100000E+09	 8.42956436E-01	-1.58316942E+02
1.42200000E+09	 8.42885558E-01	-1.58331725E+02
1.42300000E+09	 8.42777024E-01	-1.58336513E+02
1.42400000E+09	 8.42629984E-01	-1.58349944E+02
1.42500000E+09	 8.42444797E-01	-1.58360151E+02
1.42600000E+09	 8.42427022E-01	-1.58361007E+02
1.42700000E+09	 8.42326205E-01	-1.58372175E+02
1.42800000E+09	 8.42093293E-01	-1.58383722E+02
1.42900000E+09	 8.42018488E-01	-1.58394889E+02
1.43000000E+09	 8.41940323E-01	-1.58403649E+02
1.43100000E+09	 8.41909692E-01	-1.58406437E+02
1.43200000E+09	 8.41881877E-01	-1.58415579E+02
1.43300000E+09	 8.41704948E-01	-1.58428196E+02
1.43400000E+09	 8.41603443E-01	-1.58436289E+02
1.43500000E+09	 8.41645135E-01	-1.58445710E+02
1.43600000E+09	 8.41435987E-01	-1.58451963E+02
1.43700000E+09	 8.41369544E-01	-1.58453725E+02
1.43800000E+09	 8.41321848E-01	-1.58466097E+02
1.43900000E+09	 8.41259871E-01	-1.58478017E+02
1.44000000E+09	 8.41120475E-01	-1.58484076E+02
1.44100000E+09	 8.41169614E-01	-1.58492055E+02
1.44200000E+09	 8.41091217E-01	-1.58491987E+02
1.44300000E+09	 8.41071951E-01	-1.58508910E+02
1.44400000E+09	 8.40954389E-01	-1.58515268E+02
1.44500000E+09	 8.40946881E-01	-1.58525980E+02
1.44600000E+09	 8.40974420E-01	-1.58536789E+02
1.44700000E+09	 8.40828894E-01	-1.58539687E+02
1.44800000E+09	 8.40728332E-01	-1.58558754E+02
1.44900000E+09	 8.40890886E-01	-1.58557771E+02
1.45000000E+09	 8.40773143E-01	-1.58564721E+02
1.45100000E+09	 8.40836940E-01	-1.58580896E+02
1.45200000E+09	 8.40869586E-01	-1.58582687E+02
1.45300000E+09	 8.40622157E-01	-1.58592570E+02
1.45400000E+09	 8.40689448E-01	-1.58602832E+02
1.45500000E+09	 8.40657150E-01	-1.58612718E+02
1.45600000E+09	 8.40663998E-01	-1.58626103E+02
1.45700000E+09	 8.40640654E-01	-1.58631273E+02
1.45800000E+09	 8.40636164E-01	-1.58640407E+02
1.45900000E+09	 8.40653215E-01	-1.58650162E+02
1.46000000E+09	 8.40686101E-01	-1.58660735E+02
1.46100000E+09	 8.40586452E-01	-1.58672640E+02
1.46200000E+09	 8.40647391E-01	-1.58679166E+02
1.46300000E+09	 8.40655246E-01	-1.58694696E+02
1.46400000E+09	 8.40662083E-01	-1.58701774E+02
1.46500000E+09	 8.40665282E-01	-1.58711099E+02
1.46600000E+09	 8.40671011E-01	-1.58723680E+02
1.46700000E+09	 8.40706022E-01	-1.58738302E+02
1.46800000E+09	 8.40815322E-01	-1.58744006E+02
1.46900000E+09	 8.40745710E-01	-1.58765731E+02
1.47000000E+09	 8.40750282E-01	-1.58770526E+02
1.47100000E+09	 8.40827502E-01	-1.58789444E+02
1.47200000E+09	 8.40905650E-01	-1.58800487E+02
1.47300000E+09	 8.40810763E-01	-1.58812425E+02
1.47400000E+09	 8.40946689E-01	-1.58819110E+02
1.47500000E+09	 8.40920895E-01	-1.58822927E+02
1.47600000E+09	 8.40975565E-01	-1.58845418E+02
1.47700000E+09	 8.40972547E-01	-1.58856959E+02
1.47800000E+09	 8.41013854E-01	-1.58867430E+02
1.47900000E+09	 8.41020286E-01	-1.58888370E+02
1.48000000E+09	 8.41025266E-01	-1.58900896E+02
1.48100000E+09	 8.41030836E-01	-1.58911247E+02
1.48200000E+09	 8.41144431E-01	-1.58920301E+02
1.48300000E+09	 8.41164323E-01	-1.58943088E+02
1.48400000E+09	 8.41230512E-01	-1.58947584E+02
1.48500000E+09	 8.41232995E-01	-1.58971376E+02
1.48600000E+09	 8.41305740E-01	-1.58980842E+02
1.48700000E+09	 8.41324137E-01	-1.58995219E+02
1.48800000E+09	 8.41326979E-01	-1.59009977E+02
1.48900000E+09	 8.41401176E-01	-1.59025984E+02
1.49000000E+09	 8.41326802E-01	-1.59044836E+02
1.49100000E+09	 8.41413605E-01	-1.59065593E+02
1.49200000E+09	 8.41492312E-01	-1.59075469E+02
1.49300000E+09	 8.41458411E-01	-1.59089074E+02
1.49400000E+09	 8.41488481E-01	-1.59100928E+02
1.49500000E+09	 8.41589041E-01	-1.59115300E+02
1.49600000E+09	 8.41711812E-01	-1.59135469E+02
1.49700000E+09	 8.41671884E-01	-1.59153278E+02
1.49800000E+09	 8.41604091E-01	-1.59166743E+02
1.49900000E+09	 8.41631319E-01	-1.59178605E+02
1.50000000E+09	 8.41806682E-01	-1.59194489E+02
1.50100000E+09	 8.41802861E-01	-1.59208172E+02
1.50200000E+09	 8.41785025E-01	-1.59222204E+02
1.50300000E+09	 8.41891456E-01	-1.59243328E+02
1.50400000E+09	 8.41872733E-01	-1.59254201E+02
1.50500000E+09	 8.41944495E-01	-1.59269618E+02
1.50600000E+09	 8.41927104E-01	-1.59275848E+02
1.50700000E+09	 8.41994421E-01	-1.59291956E+02
1.50800000E+09	 8.41927344E-01	-1.59317333E+02
1.50900000E+09	 8.41959898E-01	-1.59326405E+02
1.51000000E+09	 8.41901784E-01	-1.59343435E+02
1.51100000E+09	 8.41897786E-01	-1.59355868E+02
1.51200000E+09	 8.41983362E-01	-1.59368676E+02
1.51300000E+09	 8.41876718E-01	-1.59380859E+02
1.51400000E+09	 8.41855502E-01	-1.59401243E+02
1.51500000E+09	 8.41974263E-01	-1.59407108E+02
1.51600000E+09	 8.41934438E-01	-1.59425263E+02
1.51700000E+09	 8.41893476E-01	-1.59438782E+02
1.51800000E+09	 8.42043284E-01	-1.59452142E+02
1.51900000E+09	 8.41891885E-01	-1.59466381E+02
1.52000000E+09	 8.41959305E-01	-1.59477496E+02
1.52100000E+09	 8.42168813E-01	-1.59493069E+02
1.52200000E+09	 8.41962669E-01	-1.59507207E+02
1.52300000E+09	 8.41979942E-01	-1.59510407E+02
1.52400000E+09	 8.41865603E-01	-1.59532051E+02
1.52500000E+09	 8.41991643E-01	-1.59531667E+02
1.52600000E+09	 8.42074041E-01	-1.59551183E+02
1.52700000E+09	 8.42230844E-01	-1.59558908E+02
1.52800000E+09	 8.42212377E-01	-1.59570579E+02
1.52900000E+09	 8.42299413E-01	-1.59577979E+02
1.53000000E+09	 8.42270286E-01	-1.59596483E+02
1.53100000E+09	 8.42305733E-01	-1.59602905E+02
1.53200000E+09	 8.42316767E-01	-1.59618776E+02
1.53300000E+09	 8.42197208E-01	-1.59620674E+02
1.53400000E+09	 8.42213579E-01	-1.59631959E+02
1.53500000E+09	 8.42533778E-01	-1.59649765E+02
1.53600000E+09	 8.42408421E-01	-1.59656338E+02
1.53700000E+09	 8.42419438E-01	-1.59670659E+02
1.53800000E+09	 8.42468031E-01	-1.59676047E+02
1.53900000E+09	 8.42590717E-01	-1.59687616E+02
1.54000000E+09	 8.42594905E-01	-1.59701815E+02
1.54100000E+09	 8.42726172E-01	-1.59708484E+02
1.54200000E+09	 8.42795941E-01	-1.59718483E+02
1.54300000E+09	 8.42982477E-01	-1.59727080E+02
1.54400000E+09	 8.42889595E-01	-1.59740883E+02
1.54500000E+09	 8.42922377E-01	-1.59744359E+02
1.54600000E+09	 8.43098675E-01	-1.59757510E+02
1.54700000E+09	 8.43123513E-01	-1.59768093E+02
1.54800000E+09	 8.43208882E-01	-1.59771125E+02
1.54900000E+09	 8.43309680E-01	-1.59779559E+02
1.55000000E+09	 8.43289071E-01	-1.59791404E+02
1.55100000E+09	 8.43525761E-01	-1.59812862E+02
1.55200000E+09	 8.43485970E-01	-1.59819188E+02
1.55300000E+09	 8.43507887E-01	-1.59822797E+02
1.55400000E+09	 8.43759411E-01	-1.59826691E+02
1.55500000E+09	 8.43798053E-01	-1.59846292E+02
1.55600000E+09	 8.43972434E-01	-1.59846717E+02
1.55700000E+09	 8.43997361E-01	-1.59869390E+02
1.55800000E+09	 8.44229903E-01	-1.59873091E+02
1.55900000E+09	 8.44243539E-01	-1.59875015E+02
1.56000000E+09	 8.44384186E-01	-1.59886166E+02
1.56100000E+09	 8.44393192E-01	-1.59906280E+02
1.56200000E+09	 8.44546956E-01	-1.59901703E+02
1.56300000E+09	 8.44546641E-01	-1.59916157E+02
1.56400000E+09	 8.44829938E-01	-1.59925337E+02
1.56500000E+09	 8.44908772E-01	-1.59934135E+02
1.56600000E+09	 8.45011626E-01	-1.59942783E+02
1.56700000E+09	 8.45038920E-01	-1.59960003E+02
1.56800000E+09	 8.45191983E-01	-1.59955821E+02
1.56900000E+09	 8.45546335E-01	-1.59966200E+02
1.57000000E+09	 8.45485392E-01	-1.59980713E+02
1.57100000E+09	 8.45536093E-01	-1.59983024E+02
1.57200000E+09	 8.45863538E-01	-1.59994983E+02
1.57300000E+09	 8.45901335E-01	-1.60008161E+02
1.57400000E+09	 8.46187524E-01	-1.60011617E+02
1.57500000E+09	 8.46066328E-01	-1.60018148E+02
1.57600000E+09	 8.46232667E-01	-1.60034018E+02
1.57700000E+09	 8.46372650E-01	-1.60045663E+02
1.57800000E+09	 8.46388406E-01	-1.60048441E+02
1.57900000E+09	 8.46514313E-01	-1.60062762E+02
1.58000000E+09	 8.46655973E-01	-1.60068447E+02
1.58100000E+09	 8.46665835E-01	-1.60080022E+02
1.58200000E+09	 8.46808044E-01	-1.60087401E+02
1.58300000E+09	 8.46816564E-01	-1.60090422E+02
1.58400000E+09	 8.47228789E-01	-1.60109985E+02
1.58500000E+09	 8.47269051E-01	-1.60118985E+02
1.58600000E+09	 8.47318868E-01	-1.60128437E+02
1.58700000E+09	 8.47381571E-01	-1.60134724E+02
1.58800000E+09	 8.47536368E-01	-1.60147664E+02
1.58900000E+09	 8.47588819E-01	-1.60153863E+02
1.59000000E+09	 8.47891569E-01	-1.60155702E+02
1.59100000E+09	 8.47810601E-01	-1.60173151E+02
1.59200000E+09	 8.47935675E-01	-1.60187507E+02
1.59300000E+09	 8.48075411E-01	-1.60204647E+02
1.59400000E+09	 8.48186817E-01	-1.60210539E+02
1.59500000E+09	 8.48278699E-01	-1.60217431E+02
1.59600000E+09	 8.48529006E-01	-1.60236408E+02
1.59700000E+09	 8.48600699E-01	-1.60244690E+02
1.59800000E+09	 8.48735672E-01	-1.60252191E+02
1.59900000E+09	 8.48702944E-01	-1.60268928E+02
1.60000000E+09	 8.48946991E-01	-1.60273334E+02
1.60100000E+09	 8.49049906E-01	-1.60281580E+02
1.60200000E+09	 8.49179521E-01	-1.60290230E+02
1.60300000E+09	 8.49275415E-01	-1.60303815E+02
1.60400000E+09	 8.49491937E-01	-1.60309767E+02
1.60500000E+09	 8.49462305E-01	-1.60322488E+02
1.60600000E+09	 8.49747055E-01	-1.60336596E+02
1.60700000E+09	 8.49824285E-01	-1.60341116E+02
1.60800000E+09	 8.49923121E-01	-1.60356749E+02
1.60900000E+09	 8.50129647E-01	-1.60364773E+02
1.61000000E+09	 8.50174315E-01	-1.60372348E+02
1.61100000E+09	 8.50350604E-01	-1.60385378E+02
1.61200000E+09	 8.50483602E-01	-1.60396157E+02
1.61300000E+09	 8.50557469E-01	-1.60408186E+02
1.61400000E+09	 8.50783268E-01	-1.60416456E+02
1.61500000E+09	 8.50840206E-01	-1.60425005E+02
1.61600000E+09	 8.50934861E-01	-1.60435122E+02
1.61700000E+09	 8.51083655E-01	-1.60444471E+02
1.61800000E+09	 8.51110246E-01	-1.60452733E+02
1.61900000E+09	 8.51224706E-01	-1.60466955E+02
1.62000000E+09	 8.51362275E-01	-1.60473603E+02
1.62100000E+09	 8.51395664E-01	-1.60485467E+02
1.62200000E+09	 8.51470051E-01	-1.60494737E+02
1.62300000E+09	 8.51550949E-01	-1.60509600E+02
1.62400000E+09	 8.51524108E-01	-1.60520190E+02
1.62500000E+09	 8.51614140E-01	-1.60526146E+02
1.62600000E+09	 8.51654880E-01	-1.60543640E+02
1.62700000E+09	 8.51846056E-01	-1.60565335E+02
1.62800000E+09	 8.51832511E-01	-1.60567535E+02
1.62900000E+09	 8.51779052E-01	-1.60580291E+02
1.63000000E+09	 8.51846108E-01	-1.60601983E+02
1.63100000E+09	 8.51902019E-01	-1.60606606E+02
1.63200000E+09	 8.51790990E-01	-1.60619559E+02
1.63300000E+09	 8.51965722E-01	-1.60632110E+02
1.63400000E+09	 8.51946196E-01	-1.60638815E+02
1.63500000E+09	 8.51882414E-01	-1.60648230E+02
1.63600000E+09	 8.52025384E-01	-1.60662703E+02
1.63700000E+09	 8.52025546E-01	-1.60683541E+02
1.63800000E+09	 8.52063954E-01	-1.60687954E+02
1.63900000E+09	 8.51966610E-01	-1.60694709E+02
1.64000000E+09	 8.52053958E-01	-1.60712289E+02
1.64100000E+09	 8.51969730E-01	-1.60725125E+02
1.64200000E+09	 8.52025683E-01	-1.60734020E+02
1.64300000E+09	 8.51896546E-01	-1.60736192E+02
1.64400000E+09	 8.51955764E-01	-1.60752609E+02
1.64500000E+09	 8.52002933E-01	-1.60760954E+02
1.64600000E+09	 8.51862426E-01	-1.60768242E+02
1.64700000E+09	 8.51828368E-01	-1.60776385E+02
1.64800000E+09	 8.51784356E-01	-1.60787600E+02
1.64900000E+09	 8.51755789E-01	-1.60799775E+02
1.65000000E+09	 8.51637653E-01	-1.60809179E+02
1.65100000E+09	 8.51689015E-01	-1.60816830E+02
1.65200000E+09	 8.51578425E-01	-1.60823046E+02
1.65300000E+09	 8.51593989E-01	-1.60839635E+02
1.65400000E+09	 8.51382410E-01	-1.60840151E+02
1.65500000E+09	 8.51327295E-01	-1.60846786E+02
1.65600000E+09	 8.51541907E-01	-1.60864544E+02
1.65700000E+09	 8.51290606E-01	-1.60868577E+02
1.65800000E+09	 8.51218713E-01	-1.60880424E+02
1.65900000E+09	 8.51083948E-01	-1.60883946E+02
1.66000000E+09	 8.51031978E-01	-1.60887522E+02
1.66100000E+09	 8.51031731E-01	-1.60892896E+02
1.66200000E+09	 8.50924775E-01	-1.60909174E+02
1.66300000E+09	 8.50793342E-01	-1.60910604E+02
1.66400000E+09	 8.50770528E-01	-1.60916378E+02
1.66500000E+09	 8.50753818E-01	-1.60922714E+02
1.66600000E+09	 8.50675362E-01	-1.60929456E+02
1.66700000E+09	 8.50618784E-01	-1.60937455E+02
1.66800000E+09	 8.50424924E-01	-1.60943151E+02
1.66900000E+09	 8.50340143E-01	-1.60937548E+02
1.67000000E+09	 8.50407769E-01	-1.60947231E+02
1.67100000E+09	 8.50257729E-01	-1.60957171E+02
1.67200000E+09	 8.50105001E-01	-1.60951682E+02
1.67300000E+09	 8.50052942E-01	-1.60967766E+02
1.67400000E+09	 8.49838898E-01	-1.60966616E+02
1.67500000E+09	 8.49916970E-01	-1.60968366E+02
1.67600000E+09	 8.49755982E-01	-1.60971420E+02
1.67700000E+09	 8.49691995E-01	-1.60974647E+02
1.67800000E+09	 8.49528549E-01	-1.60976673E+02
1.67900000E+09	 8.49529823E-01	-1.60982301E+02
1.68000000E+09	 8.49393332E-01	-1.60980023E+02
1.68100000E+09	 8.49344385E-01	-1.60993940E+02
1.68200000E+09	 8.49213398E-01	-1.60991569E+02
1.68300000E+09	 8.49234377E-01	-1.60995244E+02
1.68400000E+09	 8.49120204E-01	-1.60997256E+02
1.68500000E+09	 8.49155976E-01	-1.61002410E+02
1.68600000E+09	 8.48961769E-01	-1.61001822E+02
1.68700000E+09	 8.48713989E-01	-1.60999852E+02
1.68800000E+09	 8.48638483E-01	-1.61001894E+02
1.68900000E+09	 8.48578938E-01	-1.61003999E+02
1.69000000E+09	 8.48546926E-01	-1.61008140E+02
1.69100000E+09	 8.48426226E-01	-1.61004706E+02
1.69200000E+09	 8.48470696E-01	-1.61004196E+02
1.69300000E+09	 8.48362388E-01	-1.61012307E+02
1.69400000E+09	 8.48238054E-01	-1.61011213E+02
1.69500000E+09	 8.47981324E-01	-1.61016203E+02
1.69600000E+09	 8.48085847E-01	-1.61003938E+02
1.69700000E+09	 8.48080531E-01	-1.61003940E+02
1.69800000E+09	 8.47857164E-01	-1.61001269E+02
1.69900000E+09	 8.47801022E-01	-1.61014060E+02
1.70000000E+09	 8.47726547E-01	-1.61008009E+02
1.70100000E+09	 8.47647238E-01	-1.61018669E+02
1.70200000E+09	 8.47559892E-01	-1.61013655E+02
1.70300000E+09	 8.47372058E-01	-1.61013604E+02
1.70400000E+09	 8.47215390E-01	-1.61019736E+02
1.70500000E+09	 8.47302896E-01	-1.61010289E+02
1.70600000E+09	 8.47145643E-01	-1.61022548E+02
1.70700000E+09	 8.47119435E-01	-1.61016967E+02
1.70800000E+09	 8.46979665E-01	-1.61014831E+02
1.70900000E+09	 8.46859872E-01	-1.61020723E+02
1.71000000E+09	 8.46819715E-01	-1.61024150E+02
1.71100000E+09	 8.46685861E-01	-1.61027244E+02
1.71200000E+09	 8.46584440E-01	-1.61029636E+02
1.71300000E+09	 8.46504076E-01	-1.61029745E+02
1.71400000E+09	 8.46326691E-01	-1.61032155E+02
1.71500000E+09	 8.46300103E-01	-1.61032402E+02
1.71600000E+09	 8.46181596E-01	-1.61029964E+02
1.71700000E+09	 8.46021603E-01	-1.61037774E+02
1.71800000E+09	 8.45997426E-01	-1.61039083E+02
1.71900000E+09	 8.45947016E-01	-1.61042465E+02
1.72000000E+09	 8.45781840E-01	-1.61043393E+02
1.72100000E+09	 8.45672994E-01	-1.61041398E+02
1.72200000E+09	 8.45615494E-01	-1.61046907E+02
1.72300000E+09	 8.45532611E-01	-1.61057684E+02
1.72400000E+09	 8.45422255E-01	-1.61051182E+02
1.72500000E+09	 8.45310483E-01	-1.61066038E+02
1.72600000E+09	 8.45328090E-01	-1.61065106E+02
1.72700000E+09	 8.45154805E-01	-1.61067140E+02
1.72800000E+09	 8.45092827E-01	-1.61076442E+02
1.72900000E+09	 8.45040760E-01	-1.61075302E+02
1.73000000E+09	 8.44738396E-01	-1.61079625E+02
1.73100000E+09	 8.44699331E-01	-1.61087881E+02
1.73200000E+09	 8.44628565E-01	-1.61092666E+02
1.73300000E+09	 8.44632124E-01	-1.61095333E+02
1.73400000E+09	 8.44425765E-01	-1.61097963E+02
1.73500000E+09	 8.44253994E-01	-1.61105107E+02
1.73600000E+09	 8.44185252E-01	-1.61110843E+02
1.73700000E+09	 8.44068006E-01	-1.61108656E+02
1.73800000E+09	 8.44069320E-01	-1.61123272E+02
1.73900000E+09	 8.44007184E-01	-1.61123158E+02
1.74000000E+09	 8.43734587E-01	-1.61126815E+02
1.74100000E+09	 8.43702049E-01	-1.61129393E+02
1.74200000E+09	 8.43526446E-01	-1.61138192E+02
1.74300000E+09	 8.43420142E-01	-1.61142517E+02
1.74400000E+09	 8.43322112E-01	-1.61151425E+02
1.74500000E+09	 8.43265896E-01	-1.61164501E+02
1.74600000E+09	 8.42960963E-01	-1.61158935E+02
1.74700000E+09	 8.42892299E-01	-1.61172629E+02
1.74800000E+09	 8.42759901E-01	-1.61170821E+02
1.74900000E+09	 8.42667670E-01	-1.61184632E+02
1.75000000E+09	 8.42535980E-01	-1.61191507E+02
1.75100000E+09	 8.42515070E-01	-1.61208225E+02
1.75200000E+09	 8.42275348E-01	-1.61206122E+02
1.75300000E+09	 8.42228481E-01	-1.61210703E+02
1.75400000E+09	 8.42082935E-01	-1.61218279E+02
1.75500000E+09	 8.41973178E-01	-1.61233170E+02
1.75600000E+09	 8.41614312E-01	-1.61247791E+02
1.75700000E+09	 8.41566357E-01	-1.61250440E+02
1.75800000E+09	 8.41322484E-01	-1.61251162E+02
1.75900000E+09	 8.41311974E-01	-1.61262958E+02
1.76000000E+09	 8.41210507E-01	-1.61270555E+02
1.76100000E+09	 8.40918555E-01	-1.61276171E+02
1.76200000E+09	 8.40780864E-01	-1.61279272E+02
1.76300000E+09	 8.40870340E-01	-1.61296945E+02
1.76400000E+09	 8.40536177E-01	-1.61301850E+02
1.76500000E+09	 8.40336881E-01	-1.61317202E+02
1.76600000E+09	 8.40325925E-01	-1.61323004E+02
1.76700000E+09	 8.39980778E-01	-1.61323203E+02
1.76800000E+09	 8.39834622E-01	-1.61345271E+02
1.76900000E+09	 8.39721284E-01	-1.61348865E+02
1.77000000E+09	 8.39538945E-01	-1.61366512E+02
1.77100000E+09	 8.39449390E-01	-1.61365842E+02
1.77200000E+09	 8.39310168E-01	-1.61370994E+02
1.77300000E+09	 8.39215359E-01	-1.61389113E+02
1.77400000E+09	 8.39066275E-01	-1.61404855E+02
1.77500000E+09	 8.38578919E-01	-1.61403482E+02
1.77600000E+09	 8.38765854E-01	-1.61406298E+02
1.77700000E+09	 8.38627626E-01	-1.61428992E+02
1.77800000E+09	 8.38484248E-01	-1.61437905E+02
1.77900000E+09	 8.38326447E-01	-1.61444353E+02
1.78000000E+09	 8.38130215E-01	-1.61454825E+02
1.78100000E+09	 8.38055681E-01	-1.61467410E+02
1.78200000E+09	 8.37765536E-01	-1.61476024E+02
1.78300000E+09	 8.37578940E-01	-1.61471805E+02
1.78400000E+09	 8.37309667E-01	-1.61498410E+02
1.78500000E+09	 8.37116406E-01	-1.61511202E+02
1.78600000E+09	 8.37103678E-01	-1.61516003E+02
1.78700000E+09	 8.36902728E-01	-1.61523042E+02
1.78800000E+09	 8.36713086E-01	-1.61537055E+02
1.78900000E+09	 8.36655211E-01	-1.61552341E+02
1.79000000E+09	 8.36417705E-01	-1.61542341E+02
1.79100000E+09	 8.36190936E-01	-1.61566914E+02
1.79200000E+09	 8.36097801E-01	-1.61571823E+02
1.79300000E+09	 8.35906454E-01	-1.61586192E+02
1.79400000E+09	 8.35717828E-01	-1.61592996E+02
1.79500000E+09	 8.35514918E-01	-1.61596145E+02
1.79600000E+09	 8.35289288E-01	-1.61608523E+02
1.79700000E+09	 8.35135834E-01	-1.61618854E+02
1.79800000E+09	 8.34948431E-01	-1.61636387E+02
1.79900000E+09	 8.34944652E-01	-1.61645645E+02
1.80000000E+09	 8.34621964E-01	-1.61657657E+02
1.80100000E+09	 8.34476930E-01	-1.61656297E+02
1.80200000E+09	 8.34284103E-01	-1.61672326E+02
1.80300000E+09	 8.34117883E-01	-1.61690844E+02
1.80400000E+09	 8.33907651E-01	-1.61694996E+02
1.80500000E+09	 8.33984993E-01	-1.61715955E+02
1.80600000E+09	 8.33572591E-01	-1.61718006E+02
1.80700000E+09	 8.33483127E-01	-1.61738371E+02
1.80800000E+09	 8.33244167E-01	-1.61729622E+02
1.80900000E+09	 8.33177560E-01	-1.61747508E+02
1.81000000E+09	 8.32898828E-01	-1.61754061E+02
1.81100000E+09	 8.32818821E-01	-1.61762795E+02
1.81200000E+09	 8.32502557E-01	-1.61784632E+02
1.81300000E+09	 8.32341448E-01	-1.61781331E+02
1.81400000E+09	 8.32182760E-01	-1.61804135E+02
1.81500000E+09	 8.31991185E-01	-1.61806223E+02
1.81600000E+09	 8.31819220E-01	-1.61822920E+02
1.81700000E+09	 8.31649366E-01	-1.61831255E+02
1.81800000E+09	 8.31578137E-01	-1.61839308E+02
1.81900000E+09	 8.31444921E-01	-1.61850035E+02
1.82000000E+09	 8.31289248E-01	-1.61862640E+02
1.82100000E+09	 8.31109082E-01	-1.61877139E+02
1.82200000E+09	 8.30910047E-01	-1.61885062E+02
1.82300000E+09	 8.30803306E-01	-1.61894970E+02
1.82400000E+09	 8.30683104E-01	-1.61912220E+02
1.82500000E+09	 8.30553687E-01	-1.61920516E+02
1.82600000E+09	 8.30329627E-01	-1.61925077E+02
1.82700000E+09	 8.30306687E-01	-1.61933630E+02
1.82800000E+09	 8.30339723E-01	-1.61947753E+02
1.82900000E+09	 8.30170906E-01	-1.61951022E+02
1.83000000E+09	 8.29869301E-01	-1.61966214E+02
1.83100000E+09	 8.29880352E-01	-1.61974566E+02
1.83200000E+09	 8.29711686E-01	-1.61981950E+02
1.83300000E+09	 8.29622321E-01	-1.61989844E+02
1.83400000E+09	 8.29410718E-01	-1.62004435E+02
1.83500000E+09	 8.29406062E-01	-1.62010873E+02
1.83600000E+09	 8.29291641E-01	-1.62017989E+02
1.83700000E+09	 8.29153130E-01	-1.62030664E+02
1.83800000E+09	 8.29070737E-01	-1.62033703E+02
1.83900000E+09	 8.29026142E-01	-1.62047696E+02
1.84000000E+09	 8.28864702E-01	-1.62057523E+02
1.84100000E+09	 8.28710640E-01	-1.62070576E+02
1.84200000E+09	 8.28691453E-01	-1.62076692E+02
1.84300000E+09	 8.28583155E-01	-1.62088959E+02
1.84400000E+09	 8.28399957E-01	-1.62098579E+02
1.84500000E+09	 8.28228006E-01	-1.62098444E+02
1.84600000E+09	 8.28305564E-01	-1.62113921E+02
1.84700000E+09	 8.28129602E-01	-1.62114903E+02
1.84800000E+09	 8.28076138E-01	-1.62135769E+02
1.84900000E+09	 8.28045244E-01	-1.62138942E+02
1.85000000E+09	 8.28102696E-01	-1.62148276E+02
1.85100000E+09	 8.27852149E-01	-1.62152779E+02
1.85200000E+09	 8.27851524E-01	-1.62168619E+02
1.85300000E+09	 8.27809310E-01	-1.62175984E+02
1.85400000E+09	 8.27628895E-01	-1.62179377E+02
1.85500000E+09	 8.27722305E-01	-1.62193399E+02
1.85600000E+09	 8.27611686E-01	-1.62196431E+02
1.85700000E+09	 8.27397585E-01	-1.62207579E+02
1.85800000E+09	 8.27398148E-01	-1.62214847E+02
1.85900000E+09	 8.27403480E-01	-1.62221109E+02
1.86000000E+09	 8.27292105E-01	-1.62226318E+02
1.86100000E+09	 8.27240817E-01	-1.62237894E+02
1.86200000E+09	 8.27125181E-01	-1.62228415E+02
1.86300000E+09	 8.27109462E-01	-1.62246660E+02
1.86400000E+09	 8.27082442E-01	-1.62254713E+02
1.86500000E+09	 8.27054721E-01	-1.62258606E+02
1.86600000E+09	 8.26998971E-01	-1.62276287E+02
1.86700000E+09	 8.27070996E-01	-1.62282913E+02
1.86800000E+09	 8.26768657E-01	-1.62284303E+02
1.86900000E+09	 8.26754837E-01	-1.62298257E+02
1.87000000E+09	 8.26815082E-01	-1.62302225E+02
1.87100000E+09	 8.26716063E-01	-1.62314459E+02
1.87200000E+09	 8.26615054E-01	-1.62320111E+02
1.87300000E+09	 8.26362783E-01	-1.62331235E+02
1.87400000E+09	 8.26492619E-01	-1.62331379E+02
1.87500000E+09	 8.26359236E-01	-1.62342524E+02
1.87600000E+09	 8.26312555E-01	-1.62351207E+02
1.87700000E+09	 8.26141882E-01	-1.62358425E+02
1.87800000E+09	 8.26115308E-01	-1.62370834E+02
1.87900000E+09	 8.26172344E-01	-1.62381847E+02
1.88000000E+09	 8.26161890E-01	-1.62382859E+02
1.88100000E+09	 8.26073815E-01	-1.62388686E+02
1.88200000E+09	 8.26033108E-01	-1.62400468E+02
1.88300000E+09	 8.25843720E-01	-1.62403014E+02
1.88400000E+09	 8.25832182E-01	-1.62412068E+02
1.88500000E+09	 8.25585137E-01	-1.62411411E+02
1.88600000E+09	 8.25763107E-01	-1.62428450E+02
1.88700000E+09	 8.25517243E-01	-1.62431939E+02
1.88800000E+09	 8.25588429E-01	-1.62439017E+02
1.88900000E+09	 8.25438586E-01	-1.62449593E+02
1.89000000E+09	 8.25417145E-01	-1.62453251E+02
1.89100000E+09	 8.25444012E-01	-1.62459816E+02
1.89200000E+09	 8.25340921E-01	-1.62464564E+02
1.89300000E+09	 8.25149937E-01	-1.62470963E+02
1.89400000E+09	 8.25086789E-01	-1.62484659E+02
1.89500000E+09	 8.25078021E-01	-1.62478042E+02
1.89600000E+09	 8.25062038E-01	-1.62494785E+02
1.89700000E+09	 8.24656181E-01	-1.62483127E+02
1.89800000E+09	 8.24818276E-01	-1.62503576E+02
1.89900000E+09	 8.24934437E-01	-1.62511615E+02
1.90000000E+09	 8.24650849E-01	-1.62511714E+02
1.90100000E+09	 8.24724808E-01	-1.62527953E+02
1.90200000E+09	 8.24536628E-01	-1.62524966E+02
1.90300000E+09	 8.24682821E-01	-1.62533916E+02
1.90400000E+09	 8.24451657E-01	-1.62532479E+02
1.90500000E+09	 8.24417663E-01	-1.62537683E+02
1.90600000E+09	 8.24308633E-01	-1.62542249E+02
1.90700000E+09	 8.24269065E-01	-1.62540314E+02
1.90800000E+09	 8.24157200E-01	-1.62559428E+02
1.90900000E+09	 8.24045024E-01	-1.62556959E+02
1.91000000E+09	 8.24192045E-01	-1.62563176E+02
1.91100000E+09	 8.23958204E-01	-1.62574368E+02
1.91200000E+09	 8.23918747E-01	-1.62573953E+02
1.91300000E+09	 8.23849348E-01	-1.62580668E+02
1.91400000E+09	 8.23849047E-01	-1.62585270E+02
1.91500000E+09	 8.23846629E-01	-1.62573512E+02
1.91600000E+09	 8.23521323E-01	-1.62585918E+02
1.91700000E+09	 8.23695810E-01	-1.62588600E+02
1.91800000E+09	 8.23577667E-01	-1.62600669E+02
1.91900000E+09	 8.23530025E-01	-1.62599207E+02
1.92000000E+09	 8.23550143E-01	-1.62608535E+02
1.92100000E+09	 8.23365404E-01	-1.62606492E+02
1.92200000E+09	 8.23329808E-01	-1.62602785E+02
1.92300000E+09	 8.23244527E-01	-1.62604226E+02
1.92400000E+09	 8.23222221E-01	-1.62616222E+02
1.92500000E+09	 8.23038023E-01	-1.62617510E+02
1.92600000E+09	 8.23056797E-01	-1.62623274E+02
1.92700000E+09	 8.22965006E-01	-1.62620938E+02
1.92800000E+09	 8.22823855E-01	-1.62623490E+02
1.92900000E+09	 8.22849020E-01	-1.62630624E+02
1.93000000E+09	 8.22699758E-01	-1.62625022E+02
1.93100000E+09	 8.22678861E-01	-1.62627646E+02
1.93200000E+09	 8.22593903E-01	-1.62630564E+02
1.93300000E+09	 8.22511264E-01	-1.62629272E+02
1.93400000E+09	 8.22341727E-01	-1.62631405E+02
1.93500000E+09	 8.22306226E-01	-1.62643879E+02
1.93600000E+09	 8.22226918E-01	-1.62636473E+02
1.93700000E+09	 8.22285628E-01	-1.62634650E+02
1.93800000E+09	 8.21972271E-01	-1.62638326E+02
1.93900000E+09	 8.22020672E-01	-1.62642724E+02
1.94000000E+09	 8.21831655E-01	-1.62641360E+02
1.94100000E+09	 8.21921079E-01	-1.62635310E+02
1.94200000E+09	 8.21735247E-01	-1.62635046E+02
1.94300000E+09	 8.21703339E-01	-1.62629022E+02
1.94400000E+09	 8.21586523E-01	-1.62636865E+02
1.94500000E+09	 8.21504863E-01	-1.62630390E+02
1.94600000E+09	 8.21354058E-01	-1.62626913E+02
1.94700000E+09	 8.21306245E-01	-1.62623571E+02
1.94800000E+09	 8.21166933E-01	-1.62622150E+02
1.94900000E+09	 8.21167707E-01	-1.62615594E+02
1.95000000E+09	 8.21120780E-01	-1.62619764E+02
1.95100000E+09	 8.20964780E-01	-1.62620671E+02
1.95200000E+09	 8.20872065E-01	-1.62614526E+02
1.95300000E+09	 8.20764209E-01	-1.62611147E+02
1.95400000E+09	 8.20616514E-01	-1.62608082E+02
1.95500000E+09	 8.20582648E-01	-1.62601308E+02
1.95600000E+09	 8.20522840E-01	-1.62608442E+02
1.95700000E+09	 8.20469110E-01	-1.62602239E+02
1.95800000E+09	 8.20404150E-01	-1.62589561E+02
1.95900000E+09	 8.20271702E-01	-1.62593948E+02
1.96000000E+09	 8.20237029E-01	-1.62592085E+02
1.96100000E+09	 8.20049534E-01	-1.62586390E+02
1.96200000E+09	 8.19983732E-01	-1.62586979E+02
1.96300000E+09	 8.19953277E-01	-1.62582386E+02
1.96400000E+09	 8.19814642E-01	-1.62584056E+02
1.96500000E+09	 8.19707160E-01	-1.62578280E+02
1.96600000E+09	 8.19544815E-01	-1.62572162E+02
1.96700000E+09	 8.19437568E-01	-1.62569140E+02
1.96800000E+09	 8.19373890E-01	-1.62558906E+02
1.96900000E+09	 8.19231183E-01	-1.62559635E+02
1.97000000E+09	 8.19098327E-01	-1.62552387E+02
1.97100000E+09	 8.19072247E-01	-1.62552225E+02
1.97200000E+09	 8.18940673E-01	-1.62546347E+02
1.97300000E+09	 8.18861067E-01	-1.62543806E+02
1.97400000E+09	 8.18703679E-01	-1.62539534E+02
1.97500000E+09	 8.18654239E-01	-1.62533536E+02
1.97600000E+09	 8.18471534E-01	-1.62530771E+02
1.97700000E+09	 8.18368884E-01	-1.62524988E+02
1.97800000E+09	 8.18304612E-01	-1.62527894E+02
1.97900000E+09	 8.18202374E-01	-1.62525977E+02
1.98000000E+09	 8.18116593E-01	-1.62508161E+02
1.98100000E+09	 8.17948086E-01	-1.62513412E+02
1.98200000E+09	 8.17795839E-01	-1.62507302E+02
1.98300000E+09	 8.17695001E-01	-1.62497346E+02
1.98400000E+09	 8.17614662E-01	-1.62496287E+02
1.98500000E+09	 8.17583772E-01	-1.62498969E+02
1.98600000E+09	 8.17409525E-01	-1.62496804E+02
1.98700000E+09	 8.17265936E-01	-1.62488814E+02
1.98800000E+09	 8.17179608E-01	-1.62484513E+02
1.98900000E+09	 8.17017720E-01	-1.62487470E+02
1.99000000E+09	 8.16871884E-01	-1.62479812E+02
1.99100000E+09	 8.16797071E-01	-1.62464265E+02
1.99200000E+09	 8.16689746E-01	-1.62470687E+02
1.99300000E+09	 8.16662710E-01	-1.62465971E+02
1.99400000E+09	 8.16512374E-01	-1.62458825E+02
1.99500000E+09	 8.16339601E-01	-1.62450365E+02
1.99600000E+09	 8.16235623E-01	-1.62453157E+02
1.99700000E+09	 8.16193334E-01	-1.62453483E+02
1.99800000E+09	 8.16021545E-01	-1.62448046E+02
1.99900000E+09	 8.15913606E-01	-1.62442055E+02
2.00000000E+09	 8.15893139E-01	-1.62445855E+02
