! COPPER MOUNTAIN TECHNOLOGIES, R60, 23103002, 24.3.3/3.0
! Date: 24/6/2026 15:44:40
! Data: Format [Calibration Info]
! Frequency		S11: Mag/Ang F1                
# HZ S MA R 50
1.00000000E+08	 1.00139973E+00	-1.79892983E+02
1.05000000E+08	 1.00148557E+00	-1.79892363E+02
1.10000000E+08	 1.00134791E+00	-1.79886997E+02
1.15000000E+08	 1.00140113E+00	-1.79885107E+02
1.20000000E+08	 1.00146906E+00	-1.79887740E+02
1.25000000E+08	 1.00135402E+00	-1.79886379E+02
1.30000000E+08	 1.00149512E+00	-1.79890144E+02
1.35000000E+08	 1.00153662E+00	-1.79878912E+02
1.40000000E+08	 1.00148334E+00	-1.79872425E+02
1.45000000E+08	 1.00146747E+00	-1.79879002E+02
1.50000000E+08	 1.00161101E+00	-1.79869548E+02
1.55000000E+08	 1.00157070E+00	-1.79869582E+02
1.60000000E+08	 1.00162739E+00	-1.79869523E+02
1.65000000E+08	 1.00155015E+00	-1.79866624E+02
1.70000000E+08	 1.00148283E+00	-1.79871040E+02
1.75000000E+08	 1.00156386E+00	-1.79867348E+02
1.80000000E+08	 1.00155417E+00	-1.79874379E+02
1.85000000E+08	 1.00159438E+00	-1.79856137E+02
1.90000000E+08	 1.00166421E+00	-1.79862417E+02
1.95000000E+08	 1.00176844E+00	-1.79865852E+02
2.00000000E+08	 1.00172910E+00	-1.79861127E+02
2.05000000E+08	 1.00179587E+00	-1.79861289E+02
2.10000000E+08	 1.00164176E+00	-1.79855429E+02
2.15000000E+08	 1.00178800E+00	-1.79858596E+02
2.20000000E+08	 1.00167703E+00	-1.79860434E+02
2.25000000E+08	 1.00169458E+00	-1.79857311E+02
2.30000000E+08	 1.00163374E+00	-1.79860501E+02
2.35000000E+08	 1.00173095E+00	-1.79855631E+02
2.40000000E+08	 1.00180272E+00	-1.79851190E+02
2.45000000E+08	 1.00187000E+00	-1.79853314E+02
2.50000000E+08	 1.00169752E+00	-1.79854967E+02
2.55000000E+08	 1.00166818E+00	-1.79847679E+02
2.60000000E+08	 1.00173691E+00	-1.79855040E+02
2.65000000E+08	 1.00194977E+00	-1.79851544E+02
2.70000000E+08	 1.00181627E+00	-1.79849400E+02
2.75000000E+08	 1.00187033E+00	-1.79849522E+02
2.80000000E+08	 1.00178569E+00	-1.79853925E+02
2.85000000E+08	 1.00187165E+00	-1.79846395E+02
2.90000000E+08	 1.00199207E+00	-1.79846607E+02
2.95000000E+08	 1.00185353E+00	-1.79846846E+02
3.00000000E+08	 1.00182395E+00	-1.79839281E+02
3.05000000E+08	 1.00187997E+00	-1.79850610E+02
3.10000000E+08	 1.00185152E+00	-1.79851254E+02
3.15000000E+08	 1.00196535E+00	-1.79847060E+02
3.20000000E+08	 1.00184697E+00	-1.79849645E+02
3.25000000E+08	 1.00195136E+00	-1.79848351E+02
3.30000000E+08	 1.00183806E+00	-1.79849351E+02
3.35000000E+08	 1.00185860E+00	-1.79842328E+02
3.40000000E+08	 1.00188237E+00	-1.79845894E+02
3.45000000E+08	 1.00186711E+00	-1.79847611E+02
3.50000000E+08	 1.00178027E+00	-1.79849339E+02
3.55000000E+08	 1.00195297E+00	-1.79850024E+02
3.60000000E+08	 1.00187516E+00	-1.79850346E+02
3.65000000E+08	 1.00187070E+00	-1.79843278E+02
3.70000000E+08	 1.00181584E+00	-1.79844769E+02
3.75000000E+08	 1.00191421E+00	-1.79846842E+02
3.80000000E+08	 1.00192756E+00	-1.79853288E+02
3.85000000E+08	 1.00192656E+00	-1.79849477E+02
3.90000000E+08	 1.00199750E+00	-1.79844323E+02
3.95000000E+08	 1.00186878E+00	-1.79844408E+02
4.00000000E+08	 1.00197724E+00	-1.79845233E+02
4.05000000E+08	 1.00188267E+00	-1.79847867E+02
4.10000000E+08	 1.00192918E+00	-1.79845374E+02
4.15000000E+08	 1.00194992E+00	-1.79846098E+02
4.20000000E+08	 1.00187790E+00	-1.79847308E+02
4.25000000E+08	 1.00178778E+00	-1.79844421E+02
4.30000000E+08	 1.00177159E+00	-1.79845657E+02
4.35000000E+08	 1.00194575E+00	-1.79854268E+02
4.40000000E+08	 1.00183069E+00	-1.79852057E+02
4.45000000E+08	 1.00196429E+00	-1.79847910E+02
4.50000000E+08	 1.00194913E+00	-1.79847851E+02
4.55000000E+08	 1.00198969E+00	-1.79848930E+02
4.60000000E+08	 1.00177209E+00	-1.79850059E+02
4.65000000E+08	 1.00198238E+00	-1.79857851E+02
4.70000000E+08	 1.00183813E+00	-1.79850097E+02
4.75000000E+08	 1.00179989E+00	-1.79854021E+02
4.80000000E+08	 1.00181495E+00	-1.79854120E+02
4.85000000E+08	 1.00180808E+00	-1.79856923E+02
4.90000000E+08	 1.00179873E+00	-1.79853359E+02
4.95000000E+08	 1.00179321E+00	-1.79857512E+02
5.00000000E+08	 1.00178457E+00	-1.79855906E+02
5.05000000E+08	 1.00179841E+00	-1.79859409E+02
5.10000000E+08	 1.00190535E+00	-1.79855843E+02
5.15000000E+08	 1.00170334E+00	-1.79855265E+02
5.20000000E+08	 1.00178775E+00	-1.79854794E+02
5.25000000E+08	 1.00165456E+00	-1.79860030E+02
5.30000000E+08	 1.00168596E+00	-1.79858269E+02
5.35000000E+08	 1.00176964E+00	-1.79856675E+02
5.40000000E+08	 1.00171620E+00	-1.79853562E+02
5.45000000E+08	 1.00164600E+00	-1.79858212E+02
5.50000000E+08	 1.00165676E+00	-1.79863195E+02
5.55000000E+08	 1.00173948E+00	-1.79865526E+02
5.60000000E+08	 1.00179757E+00	-1.79854583E+02
5.65000000E+08	 1.00166893E+00	-1.79862362E+02
5.70000000E+08	 1.00166727E+00	-1.79860164E+02
5.75000000E+08	 1.00174905E+00	-1.79862363E+02
5.80000000E+08	 1.00153709E+00	-1.79865881E+02
5.85000000E+08	 1.00166957E+00	-1.79874012E+02
5.90000000E+08	 1.00162538E+00	-1.79861667E+02
5.95000000E+08	 1.00163486E+00	-1.79868725E+02
6.00000000E+08	 1.00155962E+00	-1.79871094E+02
6.05000000E+08	 1.00159368E+00	-1.79869128E+02
6.10000000E+08	 1.00154225E+00	-1.79875500E+02
6.15000000E+08	 1.00152961E+00	-1.79875043E+02
6.20000000E+08	 1.00169090E+00	-1.79879098E+02
6.25000000E+08	 1.00148911E+00	-1.79878552E+02
6.30000000E+08	 1.00149557E+00	-1.79876945E+02
6.35000000E+08	 1.00145476E+00	-1.79877919E+02
6.40000000E+08	 1.00144971E+00	-1.79879027E+02
6.45000000E+08	 1.00142568E+00	-1.79876525E+02
6.50000000E+08	 1.00144354E+00	-1.79881940E+02
6.55000000E+08	 1.00139601E+00	-1.79890232E+02
6.60000000E+08	 1.00141757E+00	-1.79882697E+02
6.65000000E+08	 1.00153294E+00	-1.79884331E+02
6.70000000E+08	 1.00140787E+00	-1.79885127E+02
6.75000000E+08	 1.00138481E+00	-1.79888501E+02
6.80000000E+08	 1.00127229E+00	-1.79887158E+02
6.85000000E+08	 1.00138117E+00	-1.79890210E+02
6.90000000E+08	 1.00135280E+00	-1.79890395E+02
6.95000000E+08	 1.00135741E+00	-1.79887493E+02
7.00000000E+08	 1.00133182E+00	-1.79894640E+02
7.05000000E+08	 1.00122420E+00	-1.79891081E+02
7.10000000E+08	 1.00126054E+00	-1.79891259E+02
7.15000000E+08	 1.00129521E+00	-1.79894789E+02
7.20000000E+08	 1.00123250E+00	-1.79899776E+02
7.25000000E+08	 1.00115520E+00	-1.79901030E+02
7.30000000E+08	 1.00137171E+00	-1.79896142E+02
7.35000000E+08	 1.00127252E+00	-1.79902955E+02
7.40000000E+08	 1.00132991E+00	-1.79899247E+02
7.45000000E+08	 1.00122381E+00	-1.79903386E+02
7.50000000E+08	 1.00116761E+00	-1.79900358E+02
7.55000000E+08	 1.00124783E+00	-1.79906402E+02
7.60000000E+08	 1.00127443E+00	-1.79902282E+02
7.65000000E+08	 1.00133312E+00	-1.79905776E+02
7.70000000E+08	 1.00127068E+00	-1.79906273E+02
7.75000000E+08	 1.00128708E+00	-1.79909419E+02
7.80000000E+08	 1.00115735E+00	-1.79915216E+02
7.85000000E+08	 1.00111815E+00	-1.79916412E+02
7.90000000E+08	 1.00103760E+00	-1.79917906E+02
7.95000000E+08	 1.00131885E+00	-1.79919057E+02
8.00000000E+08	 1.00122646E+00	-1.79917310E+02
8.05000000E+08	 1.00122341E+00	-1.79916663E+02
8.10000000E+08	 1.00119921E+00	-1.79918259E+02
8.15000000E+08	 1.00126788E+00	-1.79913590E+02
8.20000000E+08	 1.00122211E+00	-1.79919467E+02
8.25000000E+08	 1.00121295E+00	-1.79922055E+02
8.30000000E+08	 1.00125559E+00	-1.79916150E+02
8.35000000E+08	 1.00113305E+00	-1.79919828E+02
8.40000000E+08	 1.00116161E+00	-1.79921207E+02
8.45000000E+08	 1.00120211E+00	-1.79925724E+02
8.50000000E+08	 1.00119757E+00	-1.79927410E+02
8.55000000E+08	 1.00126832E+00	-1.79920256E+02
8.60000000E+08	 1.00119749E+00	-1.79924345E+02
8.65000000E+08	 1.00123677E+00	-1.79924649E+02
8.70000000E+08	 1.00117500E+00	-1.79923438E+02
8.75000000E+08	 1.00115684E+00	-1.79929312E+02
8.80000000E+08	 1.00119978E+00	-1.79923925E+02
8.85000000E+08	 1.00127258E+00	-1.79922176E+02
8.90000000E+08	 1.00116791E+00	-1.79920339E+02
8.95000000E+08	 1.00121560E+00	-1.79924212E+02
9.00000000E+08	 1.00136057E+00	-1.79927458E+02
9.05000000E+08	 1.00128295E+00	-1.79927709E+02
9.10000000E+08	 1.00127083E+00	-1.79920796E+02
9.15000000E+08	 1.00135709E+00	-1.79928257E+02
9.20000000E+08	 1.00129266E+00	-1.79927409E+02
9.25000000E+08	 1.00123735E+00	-1.79926111E+02
9.30000000E+08	 1.00131129E+00	-1.79920565E+02
9.35000000E+08	 1.00141097E+00	-1.79918259E+02
9.40000000E+08	 1.00138817E+00	-1.79917905E+02
9.45000000E+08	 1.00137141E+00	-1.79918332E+02
9.50000000E+08	 1.00143151E+00	-1.79922072E+02
9.55000000E+08	 1.00141660E+00	-1.79922211E+02
9.60000000E+08	 1.00145722E+00	-1.79918580E+02
9.65000000E+08	 1.00151910E+00	-1.79924499E+02
9.70000000E+08	 1.00142102E+00	-1.79909685E+02
9.75000000E+08	 1.00140629E+00	-1.79912754E+02
9.80000000E+08	 1.00159226E+00	-1.79908225E+02
9.85000000E+08	 1.00151954E+00	-1.79906657E+02
9.90000000E+08	 1.00163095E+00	-1.79906915E+02
9.95000000E+08	 1.00165568E+00	-1.79906141E+02
1.00000000E+09	 1.00160608E+00	-1.79910074E+02
1.00500000E+09	 1.00163742E+00	-1.79909831E+02
1.01000000E+09	 1.00166943E+00	-1.79897949E+02
1.01500000E+09	 1.00157788E+00	-1.79905172E+02
1.02000000E+09	 1.00165535E+00	-1.79896872E+02
1.02500000E+09	 1.00162030E+00	-1.79897042E+02
1.03000000E+09	 1.00184729E+00	-1.79891682E+02
1.03500000E+09	 1.00175469E+00	-1.79894684E+02
1.04000000E+09	 1.00174875E+00	-1.79888088E+02
1.04500000E+09	 1.00178922E+00	-1.79885557E+02
1.05000000E+09	 1.00182159E+00	-1.79886477E+02
1.05500000E+09	 1.00187120E+00	-1.79883543E+02
1.06000000E+09	 1.00189987E+00	-1.79881530E+02
1.06500000E+09	 1.00183589E+00	-1.79875067E+02
1.07000000E+09	 1.00200903E+00	-1.79871308E+02
1.07500000E+09	 1.00202668E+00	-1.79873460E+02
1.08000000E+09	 1.00200834E+00	-1.79868452E+02
1.08500000E+09	 1.00201890E+00	-1.79865949E+02
1.09000000E+09	 1.00205230E+00	-1.79864547E+02
1.09500000E+09	 1.00209322E+00	-1.79862958E+02
1.10000000E+09	 1.00213150E+00	-1.79863906E+02
1.10500000E+09	 1.00217368E+00	-1.79859368E+02
1.11000000E+09	 1.00210105E+00	-1.79850630E+02
1.11500000E+09	 1.00214707E+00	-1.79851056E+02
1.12000000E+09	 1.00218208E+00	-1.79841694E+02
1.12500000E+09	 1.00235648E+00	-1.79838392E+02
1.13000000E+09	 1.00223713E+00	-1.79841693E+02
1.13500000E+09	 1.00232202E+00	-1.79841148E+02
1.14000000E+09	 1.00235218E+00	-1.79839421E+02
1.14500000E+09	 1.00238055E+00	-1.79834959E+02
1.15000000E+09	 1.00233923E+00	-1.79825961E+02
1.15500000E+09	 1.00243828E+00	-1.79827434E+02
1.16000000E+09	 1.00251616E+00	-1.79824133E+02
1.16500000E+09	 1.00237777E+00	-1.79820282E+02
1.17000000E+09	 1.00246561E+00	-1.79814488E+02
1.17500000E+09	 1.00247162E+00	-1.79813288E+02
1.18000000E+09	 1.00252968E+00	-1.79809500E+02
1.18500000E+09	 1.00266105E+00	-1.79798187E+02
1.19000000E+09	 1.00252503E+00	-1.79804519E+02
1.19500000E+09	 1.00269066E+00	-1.79803618E+02
1.20000000E+09	 1.00277693E+00	-1.79801275E+02
1.20500000E+09	 1.00277006E+00	-1.79789801E+02
1.21000000E+09	 1.00274167E+00	-1.79787627E+02
1.21500000E+09	 1.00264222E+00	-1.79787199E+02
1.22000000E+09	 1.00273694E+00	-1.79781839E+02
1.22500000E+09	 1.00283565E+00	-1.79781616E+02
1.23000000E+09	 1.00276349E+00	-1.79781876E+02
1.23500000E+09	 1.00275877E+00	-1.79773199E+02
1.24000000E+09	 1.00292317E+00	-1.79769632E+02
1.24500000E+09	 1.00287559E+00	-1.79765361E+02
1.25000000E+09	 1.00287912E+00	-1.79765865E+02
1.25500000E+09	 1.00301104E+00	-1.79761779E+02
1.26000000E+09	 1.00296475E+00	-1.79750435E+02
1.26500000E+09	 1.00297042E+00	-1.79754259E+02
1.27000000E+09	 1.00297843E+00	-1.79753881E+02
1.27500000E+09	 1.00312086E+00	-1.79745408E+02
1.28000000E+09	 1.00325567E+00	-1.79742997E+02
1.28500000E+09	 1.00319350E+00	-1.79742234E+02
1.29000000E+09	 1.00325675E+00	-1.79736257E+02
1.29500000E+09	 1.00320562E+00	-1.79736826E+02
1.30000000E+09	 1.00311673E+00	-1.79732706E+02
1.30500000E+09	 1.00314320E+00	-1.79735277E+02
1.31000000E+09	 1.00331769E+00	-1.79722629E+02
1.31500000E+09	 1.00340142E+00	-1.79725317E+02
1.32000000E+09	 1.00321128E+00	-1.79713202E+02
1.32500000E+09	 1.00346161E+00	-1.79709333E+02
1.33000000E+09	 1.00328863E+00	-1.79708795E+02
1.33500000E+09	 1.00330075E+00	-1.79710449E+02
1.34000000E+09	 1.00351062E+00	-1.79708683E+02
1.34500000E+09	 1.00340328E+00	-1.79707035E+02
1.35000000E+09	 1.00351717E+00	-1.79702590E+02
1.35500000E+09	 1.00355108E+00	-1.79695004E+02
1.36000000E+09	 1.00352363E+00	-1.79697218E+02
1.36500000E+09	 1.00363545E+00	-1.79682773E+02
1.37000000E+09	 1.00359026E+00	-1.79686823E+02
1.37500000E+09	 1.00387043E+00	-1.79688333E+02
1.38000000E+09	 1.00355673E+00	-1.79688190E+02
1.38500000E+09	 1.00370020E+00	-1.79682789E+02
1.39000000E+09	 1.00377513E+00	-1.79675420E+02
1.39500000E+09	 1.00384128E+00	-1.79668432E+02
1.40000000E+09	 1.00380838E+00	-1.79672254E+02
1.40500000E+09	 1.00380979E+00	-1.79666377E+02
1.41000000E+09	 1.00394320E+00	-1.79661067E+02
1.41500000E+09	 1.00394559E+00	-1.79658679E+02
1.42000000E+09	 1.00397286E+00	-1.79655242E+02
1.42500000E+09	 1.00409796E+00	-1.79655366E+02
1.43000000E+09	 1.00399991E+00	-1.79650535E+02
1.43500000E+09	 1.00405029E+00	-1.79643270E+02
1.44000000E+09	 1.00401474E+00	-1.79642122E+02
1.44500000E+09	 1.00406306E+00	-1.79638914E+02
1.45000000E+09	 1.00417613E+00	-1.79636831E+02
1.45500000E+09	 1.00421894E+00	-1.79633772E+02
1.46000000E+09	 1.00427396E+00	-1.79625974E+02
1.46500000E+09	 1.00427231E+00	-1.79622350E+02
1.47000000E+09	 1.00429581E+00	-1.79621308E+02
1.47500000E+09	 1.00421783E+00	-1.79616150E+02
1.48000000E+09	 1.00433353E+00	-1.79614369E+02
1.48500000E+09	 1.00442382E+00	-1.79615324E+02
1.49000000E+09	 1.00448673E+00	-1.79606927E+02
1.49500000E+09	 1.00430626E+00	-1.79609383E+02
1.50000000E+09	 1.00455942E+00	-1.79598894E+02
1.50500000E+09	 1.00451829E+00	-1.79597534E+02
1.51000000E+09	 1.00456547E+00	-1.79594150E+02
1.51500000E+09	 1.00462366E+00	-1.79588896E+02
1.52000000E+09	 1.00450812E+00	-1.79594053E+02
1.52500000E+09	 1.00462601E+00	-1.79585554E+02
1.53000000E+09	 1.00467500E+00	-1.79576389E+02
1.53500000E+09	 1.00459802E+00	-1.79568674E+02
1.54000000E+09	 1.00467758E+00	-1.79571353E+02
1.54500000E+09	 1.00466442E+00	-1.79571133E+02
1.55000000E+09	 1.00468627E+00	-1.79558534E+02
1.55500000E+09	 1.00456702E+00	-1.79564668E+02
1.56000000E+09	 1.00476590E+00	-1.79559605E+02
1.56500000E+09	 1.00467699E+00	-1.79548048E+02
1.57000000E+09	 1.00479646E+00	-1.79553336E+02
1.57500000E+09	 1.00475327E+00	-1.79546049E+02
1.58000000E+09	 1.00482526E+00	-1.79546875E+02
1.58500000E+09	 1.00497301E+00	-1.79528402E+02
1.59000000E+09	 1.00488730E+00	-1.79531500E+02
1.59500000E+09	 1.00492213E+00	-1.79530038E+02
1.60000000E+09	 1.00482931E+00	-1.79529376E+02
1.60500000E+09	 1.00489018E+00	-1.79533301E+02
1.61000000E+09	 1.00482330E+00	-1.79522824E+02
1.61500000E+09	 1.00517063E+00	-1.79524093E+02
1.62000000E+09	 1.00492585E+00	-1.79516971E+02
1.62500000E+09	 1.00492101E+00	-1.79510621E+02
1.63000000E+09	 1.00480860E+00	-1.79501201E+02
1.63500000E+09	 1.00483377E+00	-1.79509487E+02
1.64000000E+09	 1.00506152E+00	-1.79509424E+02
1.64500000E+09	 1.00472105E+00	-1.79500269E+02
1.65000000E+09	 1.00502922E+00	-1.79491624E+02
1.65500000E+09	 1.00495860E+00	-1.79495688E+02
1.66000000E+09	 1.00492080E+00	-1.79490857E+02
1.66500000E+09	 1.00518547E+00	-1.79487420E+02
1.67000000E+09	 1.00495147E+00	-1.79490205E+02
1.67500000E+09	 1.00497864E+00	-1.79485677E+02
1.68000000E+09	 1.00484395E+00	-1.79478547E+02
1.68500000E+09	 1.00509448E+00	-1.79471092E+02
1.69000000E+09	 1.00486442E+00	-1.79476319E+02
1.69500000E+09	 1.00503647E+00	-1.79463764E+02
1.70000000E+09	 1.00500277E+00	-1.79474880E+02
1.70500000E+09	 1.00496334E+00	-1.79471788E+02
1.71000000E+09	 1.00492581E+00	-1.79467456E+02
1.71500000E+09	 1.00489895E+00	-1.79466204E+02
1.72000000E+09	 1.00480760E+00	-1.79458673E+02
1.72500000E+09	 1.00490276E+00	-1.79460964E+02
1.73000000E+09	 1.00486128E+00	-1.79459289E+02
1.73500000E+09	 1.00472341E+00	-1.79458235E+02
1.74000000E+09	 1.00474882E+00	-1.79460205E+02
1.74500000E+09	 1.00488150E+00	-1.79460294E+02
1.75000000E+09	 1.00489749E+00	-1.79454899E+02
1.75500000E+09	 1.00478212E+00	-1.79457318E+02
1.76000000E+09	 1.00483497E+00	-1.79452081E+02
1.76500000E+09	 1.00479814E+00	-1.79455220E+02
1.77000000E+09	 1.00478590E+00	-1.79455594E+02
1.77500000E+09	 1.00468461E+00	-1.79467241E+02
1.78000000E+09	 1.00469528E+00	-1.79457267E+02
1.78500000E+09	 1.00462667E+00	-1.79447753E+02
1.79000000E+09	 1.00463705E+00	-1.79451455E+02
1.79500000E+09	 1.00468008E+00	-1.79445026E+02
1.80000000E+09	 1.00467728E+00	-1.79452195E+02
1.80500000E+09	 1.00464736E+00	-1.79461461E+02
1.81000000E+09	 1.00468149E+00	-1.79456865E+02
1.81500000E+09	 1.00463369E+00	-1.79452328E+02
1.82000000E+09	 1.00468612E+00	-1.79453000E+02
1.82500000E+09	 1.00435014E+00	-1.79456537E+02
1.83000000E+09	 1.00466965E+00	-1.79458688E+02
1.83500000E+09	 1.00457311E+00	-1.79460751E+02
1.84000000E+09	 1.00461426E+00	-1.79454295E+02
1.84500000E+09	 1.00420082E+00	-1.79457249E+02
1.85000000E+09	 1.00431981E+00	-1.79471020E+02
1.85500000E+09	 1.00439257E+00	-1.79475135E+02
1.86000000E+09	 1.00441197E+00	-1.79474518E+02
1.86500000E+09	 1.00451452E+00	-1.79477765E+02
1.87000000E+09	 1.00411573E+00	-1.79472254E+02
1.87500000E+09	 1.00432914E+00	-1.79479840E+02
1.88000000E+09	 1.00429460E+00	-1.79481998E+02
1.88500000E+09	 1.00396956E+00	-1.79479332E+02
1.89000000E+09	 1.00418530E+00	-1.79482102E+02
1.89500000E+09	 1.00437726E+00	-1.79481080E+02
1.90000000E+09	 1.00420027E+00	-1.79496839E+02
1.90500000E+09	 1.00401716E+00	-1.79493195E+02
1.91000000E+09	 1.00392317E+00	-1.79497562E+02
1.91500000E+09	 1.00399672E+00	-1.79500378E+02
1.92000000E+09	 1.00403763E+00	-1.79507710E+02
1.92500000E+09	 1.00404064E+00	-1.79508228E+02
1.93000000E+09	 1.00396180E+00	-1.79511038E+02
1.93500000E+09	 1.00393607E+00	-1.79517747E+02
1.94000000E+09	 1.00379955E+00	-1.79518013E+02
1.94500000E+09	 1.00388418E+00	-1.79523980E+02
1.95000000E+09	 1.00375216E+00	-1.79530559E+02
1.95500000E+09	 1.00374551E+00	-1.79534795E+02
1.96000000E+09	 1.00382513E+00	-1.79547837E+02
1.96500000E+09	 1.00371629E+00	-1.79538487E+02
1.97000000E+09	 1.00391847E+00	-1.79544383E+02
1.97500000E+09	 1.00376407E+00	-1.79550539E+02
1.98000000E+09	 1.00364558E+00	-1.79554585E+02
1.98500000E+09	 1.00387838E+00	-1.79558351E+02
1.99000000E+09	 1.00361445E+00	-1.79565744E+02
1.99500000E+09	 1.00367057E+00	-1.79570721E+02
2.00000000E+09	 1.00356545E+00	-1.79582790E+02
2.00500000E+09	 1.00349647E+00	-1.79577483E+02
2.01000000E+09	 1.00347112E+00	-1.79580230E+02
2.01500000E+09	 1.00353299E+00	-1.79585703E+02
2.02000000E+09	 1.00345327E+00	-1.79593497E+02
2.02500000E+09	 1.00333898E+00	-1.79601003E+02
2.03000000E+09	 1.00338640E+00	-1.79604592E+02
2.03500000E+09	 1.00336108E+00	-1.79610180E+02
2.04000000E+09	 1.00337453E+00	-1.79613109E+02
2.04500000E+09	 1.00334656E+00	-1.79617080E+02
2.05000000E+09	 1.00339266E+00	-1.79615998E+02
2.05500000E+09	 1.00328316E+00	-1.79627528E+02
2.06000000E+09	 1.00328927E+00	-1.79626312E+02
2.06500000E+09	 1.00321158E+00	-1.79632651E+02
2.07000000E+09	 1.00315048E+00	-1.79634747E+02
2.07500000E+09	 1.00306630E+00	-1.79646840E+02
2.08000000E+09	 1.00307438E+00	-1.79643202E+02
2.08500000E+09	 1.00320676E+00	-1.79645790E+02
2.09000000E+09	 1.00309616E+00	-1.79653193E+02
2.09500000E+09	 1.00317071E+00	-1.79662322E+02
2.10000000E+09	 1.00311435E+00	-1.79659178E+02
2.10500000E+09	 1.00308327E+00	-1.79665911E+02
2.11000000E+09	 1.00297579E+00	-1.79678521E+02
2.11500000E+09	 1.00302332E+00	-1.79671187E+02
2.12000000E+09	 1.00298130E+00	-1.79679391E+02
2.12500000E+09	 1.00283448E+00	-1.79676575E+02
2.13000000E+09	 1.00293929E+00	-1.79685173E+02
2.13500000E+09	 1.00283716E+00	-1.79692305E+02
2.14000000E+09	 1.00277990E+00	-1.79693269E+02
2.14500000E+09	 1.00279697E+00	-1.79690391E+02
2.15000000E+09	 1.00283585E+00	-1.79711730E+02
2.15500000E+09	 1.00279548E+00	-1.79709558E+02
2.16000000E+09	 1.00267517E+00	-1.79706654E+02
2.16500000E+09	 1.00280487E+00	-1.79716225E+02
2.17000000E+09	 1.00285770E+00	-1.79721154E+02
2.17500000E+09	 1.00271003E+00	-1.79734597E+02
2.18000000E+09	 1.00270936E+00	-1.79724860E+02
2.18500000E+09	 1.00253086E+00	-1.79731590E+02
2.19000000E+09	 1.00233929E+00	-1.79725221E+02
2.19500000E+09	 1.00246159E+00	-1.79733107E+02
2.20000000E+09	 1.00243740E+00	-1.79739881E+02
2.20500000E+09	 1.00235496E+00	-1.79740883E+02
2.21000000E+09	 1.00251860E+00	-1.79753177E+02
2.21500000E+09	 1.00245107E+00	-1.79742127E+02
2.22000000E+09	 1.00241791E+00	-1.79745927E+02
2.22500000E+09	 1.00227807E+00	-1.79754629E+02
2.23000000E+09	 1.00228649E+00	-1.79761546E+02
2.23500000E+09	 1.00211064E+00	-1.79759398E+02
2.24000000E+09	 1.00239121E+00	-1.79765557E+02
2.24500000E+09	 1.00218296E+00	-1.79762078E+02
2.25000000E+09	 1.00202547E+00	-1.79769663E+02
2.25500000E+09	 1.00227492E+00	-1.79767618E+02
2.26000000E+09	 1.00197691E+00	-1.79772403E+02
2.26500000E+09	 1.00218463E+00	-1.79781451E+02
2.27000000E+09	 1.00178327E+00	-1.79793816E+02
2.27500000E+09	 1.00203737E+00	-1.79791416E+02
2.28000000E+09	 1.00195558E+00	-1.79789279E+02
2.28500000E+09	 1.00202291E+00	-1.79793569E+02
2.29000000E+09	 1.00186084E+00	-1.79798418E+02
2.29500000E+09	 1.00183315E+00	-1.79792262E+02
2.30000000E+09	 1.00185755E+00	-1.79795156E+02
2.30500000E+09	 1.00188030E+00	-1.79800696E+02
2.31000000E+09	 1.00181263E+00	-1.79804566E+02
2.31500000E+09	 1.00172940E+00	-1.79804453E+02
2.32000000E+09	 1.00180127E+00	-1.79805760E+02
2.32500000E+09	 1.00184416E+00	-1.79810361E+02
2.33000000E+09	 1.00175538E+00	-1.79812664E+02
2.33500000E+09	 1.00176649E+00	-1.79814458E+02
2.34000000E+09	 1.00169630E+00	-1.79820421E+02
2.34500000E+09	 1.00163013E+00	-1.79826876E+02
2.35000000E+09	 1.00164658E+00	-1.79827684E+02
2.35500000E+09	 1.00165006E+00	-1.79827013E+02
2.36000000E+09	 1.00163996E+00	-1.79825283E+02
2.36500000E+09	 1.00144349E+00	-1.79829443E+02
2.37000000E+09	 1.00170639E+00	-1.79830450E+02
2.37500000E+09	 1.00159224E+00	-1.79833209E+02
2.38000000E+09	 1.00148854E+00	-1.79836105E+02
2.38500000E+09	 1.00150326E+00	-1.79846969E+02
2.39000000E+09	 1.00152888E+00	-1.79844652E+02
2.39500000E+09	 1.00147504E+00	-1.79849241E+02
2.40000000E+09	 1.00144435E+00	-1.79857299E+02
2.40500000E+09	 1.00146812E+00	-1.79860883E+02
2.41000000E+09	 1.00141650E+00	-1.79863547E+02
2.41500000E+09	 1.00124209E+00	-1.79863181E+02
2.42000000E+09	 1.00124196E+00	-1.79861492E+02
2.42500000E+09	 1.00126999E+00	-1.79866892E+02
2.43000000E+09	 1.00110257E+00	-1.79859401E+02
2.43500000E+09	 1.00131265E+00	-1.79870508E+02
2.44000000E+09	 1.00127059E+00	-1.79870505E+02
2.44500000E+09	 1.00116262E+00	-1.79871334E+02
2.45000000E+09	 1.00098445E+00	-1.79859655E+02
2.45500000E+09	 1.00114824E+00	-1.79871741E+02
2.46000000E+09	 1.00103262E+00	-1.79881864E+02
2.46500000E+09	 1.00097265E+00	-1.79883331E+02
2.47000000E+09	 1.00094616E+00	-1.79877789E+02
2.47500000E+09	 1.00113410E+00	-1.79890331E+02
2.48000000E+09	 1.00116445E+00	-1.79889801E+02
2.48500000E+09	 1.00105762E+00	-1.79891927E+02
2.49000000E+09	 1.00117277E+00	-1.79895975E+02
2.49500000E+09	 1.00124156E+00	-1.79896059E+02
2.50000000E+09	 1.00118867E+00	-1.79897298E+02
2.50500000E+09	 1.00093904E+00	-1.79898437E+02
2.51000000E+09	 1.00096234E+00	-1.79898940E+02
2.51500000E+09	 1.00111684E+00	-1.79907705E+02
2.52000000E+09	 1.00102961E+00	-1.79905599E+02
2.52500000E+09	 1.00094999E+00	-1.79908002E+02
2.53000000E+09	 1.00109545E+00	-1.79912746E+02
2.53500000E+09	 1.00104292E+00	-1.79911698E+02
2.54000000E+09	 1.00100862E+00	-1.79910949E+02
2.54500000E+09	 1.00084467E+00	-1.79909030E+02
2.55000000E+09	 1.00092374E+00	-1.79927889E+02
2.55500000E+09	 1.00099984E+00	-1.79920028E+02
2.56000000E+09	 1.00104366E+00	-1.79922835E+02
2.56500000E+09	 1.00088837E+00	-1.79920369E+02
2.57000000E+09	 1.00096736E+00	-1.79925574E+02
2.57500000E+09	 1.00094278E+00	-1.79928923E+02
2.58000000E+09	 1.00086770E+00	-1.79929833E+02
2.58500000E+09	 1.00087132E+00	-1.79921920E+02
2.59000000E+09	 1.00091309E+00	-1.79925355E+02
2.59500000E+09	 1.00093763E+00	-1.79918187E+02
2.60000000E+09	 1.00088168E+00	-1.79922367E+02
2.60500000E+09	 1.00101136E+00	-1.79935783E+02
2.61000000E+09	 1.00091806E+00	-1.79931342E+02
2.61500000E+09	 1.00102257E+00	-1.79932529E+02
2.62000000E+09	 1.00100312E+00	-1.79935657E+02
2.62500000E+09	 1.00102724E+00	-1.79933905E+02
2.63000000E+09	 1.00098932E+00	-1.79926619E+02
2.63500000E+09	 1.00102570E+00	-1.79933058E+02
2.64000000E+09	 1.00106326E+00	-1.79938137E+02
2.64500000E+09	 1.00104291E+00	-1.79931863E+02
2.65000000E+09	 1.00116550E+00	-1.79930309E+02
2.65500000E+09	 1.00117035E+00	-1.79928752E+02
2.66000000E+09	 1.00111058E+00	-1.79931286E+02
2.66500000E+09	 1.00099194E+00	-1.79936805E+02
2.67000000E+09	 1.00119590E+00	-1.79930831E+02
2.67500000E+09	 1.00110126E+00	-1.79935114E+02
2.68000000E+09	 1.00115884E+00	-1.79927081E+02
2.68500000E+09	 1.00126588E+00	-1.79930628E+02
2.69000000E+09	 1.00115853E+00	-1.79930567E+02
2.69500000E+09	 1.00132315E+00	-1.79932020E+02
2.70000000E+09	 1.00123519E+00	-1.79926291E+02
2.70500000E+09	 1.00116897E+00	-1.79926206E+02
2.71000000E+09	 1.00119710E+00	-1.79922851E+02
2.71500000E+09	 1.00132632E+00	-1.79919587E+02
2.72000000E+09	 1.00147144E+00	-1.79918136E+02
2.72500000E+09	 1.00136340E+00	-1.79915666E+02
2.73000000E+09	 1.00144696E+00	-1.79916097E+02
2.73500000E+09	 1.00155848E+00	-1.79908664E+02
2.74000000E+09	 1.00155664E+00	-1.79909829E+02
2.74500000E+09	 1.00156148E+00	-1.79910110E+02
2.75000000E+09	 1.00168951E+00	-1.79911692E+02
2.75500000E+09	 1.00172645E+00	-1.79901209E+02
2.76000000E+09	 1.00161736E+00	-1.79897646E+02
2.76500000E+09	 1.00172932E+00	-1.79900735E+02
2.77000000E+09	 1.00169720E+00	-1.79886099E+02
2.77500000E+09	 1.00172355E+00	-1.79883570E+02
2.78000000E+09	 1.00202731E+00	-1.79884401E+02
2.78500000E+09	 1.00184549E+00	-1.79874541E+02
2.79000000E+09	 1.00199780E+00	-1.79873344E+02
2.79500000E+09	 1.00192157E+00	-1.79875635E+02
2.80000000E+09	 1.00227322E+00	-1.79868677E+02
2.80500000E+09	 1.00226136E+00	-1.79864067E+02
2.81000000E+09	 1.00225999E+00	-1.79870653E+02
2.81500000E+09	 1.00212447E+00	-1.79858409E+02
2.82000000E+09	 1.00222455E+00	-1.79834746E+02
2.82500000E+09	 1.00230474E+00	-1.79849707E+02
2.83000000E+09	 1.00233324E+00	-1.79842920E+02
2.83500000E+09	 1.00225445E+00	-1.79828714E+02
2.84000000E+09	 1.00236156E+00	-1.79831029E+02
2.84500000E+09	 1.00273422E+00	-1.79823810E+02
2.85000000E+09	 1.00278254E+00	-1.79812743E+02
2.85500000E+09	 1.00278028E+00	-1.79823019E+02
2.86000000E+09	 1.00293074E+00	-1.79809527E+02
2.86500000E+09	 1.00274541E+00	-1.79802706E+02
2.87000000E+09	 1.00276073E+00	-1.79801253E+02
2.87500000E+09	 1.00285804E+00	-1.79786414E+02
2.88000000E+09	 1.00288590E+00	-1.79778227E+02
2.88500000E+09	 1.00295766E+00	-1.79772459E+02
2.89000000E+09	 1.00307211E+00	-1.79768905E+02
2.89500000E+09	 1.00312242E+00	-1.79774115E+02
2.90000000E+09	 1.00323030E+00	-1.79760849E+02
2.90500000E+09	 1.00332965E+00	-1.79776924E+02
2.91000000E+09	 1.00333551E+00	-1.79765365E+02
2.91500000E+09	 1.00330962E+00	-1.79742007E+02
2.92000000E+09	 1.00347054E+00	-1.79741868E+02
2.92500000E+09	 1.00353026E+00	-1.79741781E+02
2.93000000E+09	 1.00359835E+00	-1.79720298E+02
2.93500000E+09	 1.00373424E+00	-1.79725583E+02
2.94000000E+09	 1.00384836E+00	-1.79718538E+02
2.94500000E+09	 1.00399887E+00	-1.79709246E+02
2.95000000E+09	 1.00386840E+00	-1.79697046E+02
2.95500000E+09	 1.00413545E+00	-1.79702539E+02
2.96000000E+09	 1.00406588E+00	-1.79701220E+02
2.96500000E+09	 1.00422463E+00	-1.79700117E+02
2.97000000E+09	 1.00431976E+00	-1.79685230E+02
2.97500000E+09	 1.00428504E+00	-1.79675306E+02
2.98000000E+09	 1.00442110E+00	-1.79671837E+02
2.98500000E+09	 1.00452667E+00	-1.79671863E+02
2.99000000E+09	 1.00455435E+00	-1.79672129E+02
2.99500000E+09	 1.00488667E+00	-1.79657213E+02
3.00000000E+09	 1.00472967E+00	-1.79653322E+02
3.00500000E+09	 1.00497960E+00	-1.79637420E+02
3.01000000E+09	 1.00484010E+00	-1.79636336E+02
3.01500000E+09	 1.00503406E+00	-1.79633831E+02
3.02000000E+09	 1.00525899E+00	-1.79607796E+02
3.02500000E+09	 1.00506099E+00	-1.79619091E+02
3.03000000E+09	 1.00531439E+00	-1.79617762E+02
3.03500000E+09	 1.00530087E+00	-1.79621584E+02
3.04000000E+09	 1.00539379E+00	-1.79612593E+02
3.04500000E+09	 1.00569270E+00	-1.79606883E+02
3.05000000E+09	 1.00538968E+00	-1.79584512E+02
3.05500000E+09	 1.00578041E+00	-1.79592692E+02
3.06000000E+09	 1.00569720E+00	-1.79598995E+02
3.06500000E+09	 1.00617586E+00	-1.79585609E+02
3.07000000E+09	 1.00607483E+00	-1.79583442E+02
3.07500000E+09	 1.00574619E+00	-1.79591960E+02
3.08000000E+09	 1.00548475E+00	-1.79571928E+02
3.08500000E+09	 1.00584689E+00	-1.79590741E+02
3.09000000E+09	 1.00627495E+00	-1.79564749E+02
3.09500000E+09	 1.00612243E+00	-1.79562495E+02
3.10000000E+09	 1.00612504E+00	-1.79558277E+02
3.10500000E+09	 1.00610296E+00	-1.79548388E+02
3.11000000E+09	 1.00641100E+00	-1.79536182E+02
3.11500000E+09	 1.00635911E+00	-1.79524347E+02
3.12000000E+09	 1.00656154E+00	-1.79520144E+02
3.12500000E+09	 1.00623227E+00	-1.79535753E+02
3.13000000E+09	 1.00699384E+00	-1.79537635E+02
3.13500000E+09	 1.00715996E+00	-1.79491260E+02
3.14000000E+09	 1.00673996E+00	-1.79509866E+02
3.14500000E+09	 1.00705265E+00	-1.79524322E+02
3.15000000E+09	 1.00697966E+00	-1.79491409E+02
3.15500000E+09	 1.00706615E+00	-1.79499046E+02
3.16000000E+09	 1.00711933E+00	-1.79485270E+02
3.16500000E+09	 1.00717520E+00	-1.79496916E+02
3.17000000E+09	 1.00723794E+00	-1.79476222E+02
3.17500000E+09	 1.00696348E+00	-1.79470721E+02
3.18000000E+09	 1.00715082E+00	-1.79460995E+02
3.18500000E+09	 1.00738324E+00	-1.79450085E+02
3.19000000E+09	 1.00731846E+00	-1.79456665E+02
3.19500000E+09	 1.00778685E+00	-1.79455198E+02
3.20000000E+09	 1.00737737E+00	-1.79443494E+02
3.20500000E+09	 1.00761981E+00	-1.79442555E+02
3.21000000E+09	 1.00786354E+00	-1.79425916E+02
3.21500000E+09	 1.00791116E+00	-1.79427823E+02
3.22000000E+09	 1.00803099E+00	-1.79417912E+02
3.22500000E+09	 1.00798715E+00	-1.79412387E+02
3.23000000E+09	 1.00790118E+00	-1.79408918E+02
3.23500000E+09	 1.00811079E+00	-1.79409563E+02
3.24000000E+09	 1.00822495E+00	-1.79398082E+02
3.24500000E+09	 1.00817991E+00	-1.79408728E+02
3.25000000E+09	 1.00822530E+00	-1.79388585E+02
3.25500000E+09	 1.00831746E+00	-1.79385771E+02
3.26000000E+09	 1.00818899E+00	-1.79379794E+02
3.26500000E+09	 1.00829078E+00	-1.79382372E+02
3.27000000E+09	 1.00847439E+00	-1.79370243E+02
3.27500000E+09	 1.00838123E+00	-1.79360535E+02
3.28000000E+09	 1.00857432E+00	-1.79363594E+02
3.28500000E+09	 1.00826362E+00	-1.79372272E+02
3.29000000E+09	 1.00857100E+00	-1.79350532E+02
3.29500000E+09	 1.00890959E+00	-1.79360118E+02
3.30000000E+09	 1.00856919E+00	-1.79356123E+02
3.30500000E+09	 1.00845782E+00	-1.79355921E+02
3.31000000E+09	 1.00859185E+00	-1.79316349E+02
3.31500000E+09	 1.00887009E+00	-1.79337211E+02
3.32000000E+09	 1.00883907E+00	-1.79325084E+02
3.32500000E+09	 1.00873927E+00	-1.79304728E+02
3.33000000E+09	 1.00842813E+00	-1.79307510E+02
3.33500000E+09	 1.00870122E+00	-1.79309201E+02
3.34000000E+09	 1.00912023E+00	-1.79310809E+02
3.34500000E+09	 1.00949564E+00	-1.79287690E+02
3.35000000E+09	 1.00935025E+00	-1.79295205E+02
3.35500000E+09	 1.00915724E+00	-1.79277742E+02
3.36000000E+09	 1.00913212E+00	-1.79255066E+02
3.36500000E+09	 1.00861706E+00	-1.79268035E+02
3.37000000E+09	 1.00915483E+00	-1.79262085E+02
3.37500000E+09	 1.00940331E+00	-1.79249630E+02
3.38000000E+09	 1.00906674E+00	-1.79247701E+02
3.38500000E+09	 1.00882541E+00	-1.79237360E+02
3.39000000E+09	 1.00904163E+00	-1.79228260E+02
3.39500000E+09	 1.00896588E+00	-1.79241911E+02
3.40000000E+09	 1.00934420E+00	-1.79247211E+02
3.40500000E+09	 1.00926833E+00	-1.79219247E+02
3.41000000E+09	 1.00907880E+00	-1.79224864E+02
3.41500000E+09	 1.00877129E+00	-1.79213051E+02
3.42000000E+09	 1.00914561E+00	-1.79204354E+02
3.42500000E+09	 1.00904732E+00	-1.79200724E+02
3.43000000E+09	 1.00893275E+00	-1.79196055E+02
3.43500000E+09	 1.00907009E+00	-1.79199945E+02
3.44000000E+09	 1.00898958E+00	-1.79195269E+02
3.44500000E+09	 1.00877741E+00	-1.79200653E+02
3.45000000E+09	 1.00896587E+00	-1.79191695E+02
3.45500000E+09	 1.00897775E+00	-1.79195799E+02
3.46000000E+09	 1.00888142E+00	-1.79197425E+02
3.46500000E+09	 1.00887111E+00	-1.79177187E+02
3.47000000E+09	 1.00891128E+00	-1.79169637E+02
3.47500000E+09	 1.00887853E+00	-1.79169361E+02
3.48000000E+09	 1.00887681E+00	-1.79170788E+02
3.48500000E+09	 1.00895836E+00	-1.79182279E+02
3.49000000E+09	 1.00889590E+00	-1.79169509E+02
3.49500000E+09	 1.00892824E+00	-1.79170699E+02
3.50000000E+09	 1.00865028E+00	-1.79164526E+02
3.50500000E+09	 1.00852076E+00	-1.79160811E+02
3.51000000E+09	 1.00873858E+00	-1.79154226E+02
3.51500000E+09	 1.00868092E+00	-1.79154676E+02
3.52000000E+09	 1.00869375E+00	-1.79161290E+02
3.52500000E+09	 1.00856333E+00	-1.79155022E+02
3.53000000E+09	 1.00875185E+00	-1.79135445E+02
3.53500000E+09	 1.00864267E+00	-1.79165037E+02
3.54000000E+09	 1.00827795E+00	-1.79150150E+02
3.54500000E+09	 1.00811739E+00	-1.79146379E+02
3.55000000E+09	 1.00825029E+00	-1.79172100E+02
3.55500000E+09	 1.00813701E+00	-1.79171958E+02
3.56000000E+09	 1.00805795E+00	-1.79170169E+02
3.56500000E+09	 1.00830357E+00	-1.79161907E+02
3.57000000E+09	 1.00800154E+00	-1.79162197E+02
3.57500000E+09	 1.00638772E+00	-1.79085127E+02
3.58000000E+09	 1.00740969E+00	-1.79171613E+02
3.58500000E+09	 1.00804323E+00	-1.79154960E+02
3.59000000E+09	 1.00768882E+00	-1.79167770E+02
3.59500000E+09	 1.00779607E+00	-1.79164533E+02
3.60000000E+09	 1.00743465E+00	-1.79193096E+02
3.60500000E+09	 1.00675527E+00	-1.79183195E+02
3.61000000E+09	 1.00719606E+00	-1.79193496E+02
3.61500000E+09	 1.00750043E+00	-1.79201528E+02
3.62000000E+09	 1.00744575E+00	-1.79210793E+02
3.62500000E+09	 1.00711465E+00	-1.79287082E+02
3.63000000E+09	 1.00681028E+00	-1.79216914E+02
3.63500000E+09	 1.00685465E+00	-1.79232613E+02
3.64000000E+09	 1.00663763E+00	-1.79234206E+02
3.64500000E+09	 1.00739220E+00	-1.79219888E+02
3.65000000E+09	 1.00670877E+00	-1.79240010E+02
3.65500000E+09	 1.00648857E+00	-1.79244662E+02
3.66000000E+09	 1.00637564E+00	-1.79255292E+02
3.66500000E+09	 1.00641292E+00	-1.79259801E+02
3.67000000E+09	 1.00634415E+00	-1.79259121E+02
3.67500000E+09	 1.00700259E+00	-1.79283626E+02
3.68000000E+09	 1.00640128E+00	-1.79293378E+02
3.68500000E+09	 1.00607497E+00	-1.79295040E+02
3.69000000E+09	 1.00603935E+00	-1.79298216E+02
3.69500000E+09	 1.00570012E+00	-1.79310538E+02
3.70000000E+09	 1.00568322E+00	-1.79310992E+02
3.70500000E+09	 1.00540676E+00	-1.79322746E+02
3.71000000E+09	 1.00549632E+00	-1.79344758E+02
3.71500000E+09	 1.00559063E+00	-1.79351385E+02
3.72000000E+09	 1.00556419E+00	-1.79329108E+02
3.72500000E+09	 1.00582361E+00	-1.79396856E+02
3.73000000E+09	 1.00532812E+00	-1.79359944E+02
3.73500000E+09	 1.00553103E+00	-1.79384915E+02
3.74000000E+09	 1.00537191E+00	-1.79386467E+02
3.74500000E+09	 1.00516528E+00	-1.79404705E+02
3.75000000E+09	 1.00515925E+00	-1.79410963E+02
3.75500000E+09	 1.00508482E+00	-1.79412318E+02
3.76000000E+09	 1.00503660E+00	-1.79413414E+02
3.76500000E+09	 1.00500236E+00	-1.79420501E+02
3.77000000E+09	 1.00495658E+00	-1.79432008E+02
3.77500000E+09	 1.00482606E+00	-1.79443996E+02
3.78000000E+09	 1.00450117E+00	-1.79447419E+02
3.78500000E+09	 1.00451420E+00	-1.79450169E+02
3.79000000E+09	 1.00434038E+00	-1.79454574E+02
3.79500000E+09	 1.00441874E+00	-1.79468366E+02
3.80000000E+09	 1.00419053E+00	-1.79475459E+02
3.80500000E+09	 1.00398299E+00	-1.79484000E+02
3.81000000E+09	 1.00398806E+00	-1.79503929E+02
3.81500000E+09	 1.00405938E+00	-1.79512586E+02
3.82000000E+09	 1.00382944E+00	-1.79530161E+02
3.82500000E+09	 1.00364463E+00	-1.79550098E+02
3.83000000E+09	 1.00365526E+00	-1.79537821E+02
3.83500000E+09	 1.00379700E+00	-1.79551751E+02
3.84000000E+09	 1.00363649E+00	-1.79564745E+02
3.84500000E+09	 1.00333929E+00	-1.79568340E+02
3.85000000E+09	 1.00358651E+00	-1.79567311E+02
3.85500000E+09	 1.00333449E+00	-1.79578402E+02
3.86000000E+09	 1.00340745E+00	-1.79582009E+02
3.86500000E+09	 1.00294561E+00	-1.79580669E+02
3.87000000E+09	 1.00326490E+00	-1.79613742E+02
3.87500000E+09	 1.00319373E+00	-1.79609001E+02
3.88000000E+09	 1.00322795E+00	-1.79602375E+02
3.88500000E+09	 1.00299945E+00	-1.79625865E+02
3.89000000E+09	 1.00302414E+00	-1.79630717E+02
3.89500000E+09	 1.00339873E+00	-1.79645435E+02
3.90000000E+09	 1.00291713E+00	-1.79654134E+02
3.90500000E+09	 1.00331447E+00	-1.79651623E+02
3.91000000E+09	 1.00276774E+00	-1.79664342E+02
3.91500000E+09	 1.00257683E+00	-1.79662171E+02
3.92000000E+09	 1.00271006E+00	-1.79675926E+02
3.92500000E+09	 1.00257194E+00	-1.79665858E+02
3.93000000E+09	 1.00267182E+00	-1.79677143E+02
3.93500000E+09	 1.00256428E+00	-1.79690190E+02
3.94000000E+09	 1.00230895E+00	-1.79686377E+02
3.94500000E+09	 1.00234925E+00	-1.79704878E+02
3.95000000E+09	 1.00233113E+00	-1.79714158E+02
3.95500000E+09	 1.00234689E+00	-1.79715643E+02
3.96000000E+09	 1.00228291E+00	-1.79715648E+02
3.96500000E+09	 1.00203584E+00	-1.79733756E+02
3.97000000E+09	 1.00195997E+00	-1.79736932E+02
3.97500000E+09	 1.00230773E+00	-1.79724264E+02
3.98000000E+09	 1.00203466E+00	-1.79733860E+02
3.98500000E+09	 1.00196235E+00	-1.79739593E+02
3.99000000E+09	 1.00200402E+00	-1.79746267E+02
3.99500000E+09	 1.00196181E+00	-1.79754773E+02
4.00000000E+09	 1.00190320E+00	-1.79763950E+02
4.00500000E+09	 1.00182601E+00	-1.79758698E+02
4.01000000E+09	 1.00177650E+00	-1.79756514E+02
4.01500000E+09	 1.00192231E+00	-1.79775560E+02
4.02000000E+09	 1.00188383E+00	-1.79771323E+02
4.02500000E+09	 1.00156599E+00	-1.79774246E+02
4.03000000E+09	 1.00171661E+00	-1.79783781E+02
4.03500000E+09	 1.00164466E+00	-1.79780743E+02
4.04000000E+09	 1.00169772E+00	-1.79790158E+02
4.04500000E+09	 1.00162987E+00	-1.79792389E+02
4.05000000E+09	 1.00150534E+00	-1.79793782E+02
4.05500000E+09	 1.00130586E+00	-1.79804966E+02
4.06000000E+09	 1.00144282E+00	-1.79800031E+02
4.06500000E+09	 1.00156904E+00	-1.79806430E+02
4.07000000E+09	 1.00143808E+00	-1.79808930E+02
4.07500000E+09	 1.00126569E+00	-1.79811905E+02
4.08000000E+09	 1.00142874E+00	-1.79801380E+02
4.08500000E+09	 1.00137001E+00	-1.79819771E+02
4.09000000E+09	 1.00130565E+00	-1.79819269E+02
4.09500000E+09	 1.00117385E+00	-1.79835173E+02
4.10000000E+09	 1.00118938E+00	-1.79828818E+02
4.10500000E+09	 1.00100590E+00	-1.79805098E+02
4.11000000E+09	 1.00122419E+00	-1.79850338E+02
4.11500000E+09	 1.00119226E+00	-1.79821778E+02
4.12000000E+09	 1.00124961E+00	-1.79824643E+02
4.12500000E+09	 1.00116747E+00	-1.79827479E+02
4.13000000E+09	 1.00127908E+00	-1.79839824E+02
4.13500000E+09	 1.00123850E+00	-1.79858571E+02
4.14000000E+09	 1.00130678E+00	-1.79844809E+02
4.14500000E+09	 1.00128015E+00	-1.79867761E+02
4.15000000E+09	 1.00120368E+00	-1.79859154E+02
4.15500000E+09	 1.00110113E+00	-1.79872296E+02
4.16000000E+09	 1.00097410E+00	-1.79864074E+02
4.16500000E+09	 1.00103233E+00	-1.79844101E+02
4.17000000E+09	 1.00104070E+00	-1.79865196E+02
4.17500000E+09	 1.00110891E+00	-1.79859419E+02
4.18000000E+09	 1.00126760E+00	-1.79881521E+02
4.18500000E+09	 1.00064087E+00	-1.79865144E+02
4.19000000E+09	 1.00083730E+00	-1.79873897E+02
4.19500000E+09	 1.00122383E+00	-1.79893547E+02
4.20000000E+09	 1.00114793E+00	-1.79888031E+02
4.20500000E+09	 1.00091825E+00	-1.79874772E+02
4.21000000E+09	 1.00105080E+00	-1.79890054E+02
4.21500000E+09	 1.00086204E+00	-1.79868562E+02
4.22000000E+09	 1.00109690E+00	-1.79905211E+02
4.22500000E+09	 1.00137185E+00	-1.79874605E+02
4.23000000E+09	 1.00104610E+00	-1.79909902E+02
4.23500000E+09	 1.00104179E+00	-1.79889418E+02
4.24000000E+09	 1.00097093E+00	-1.79896423E+02
4.24500000E+09	 1.00101845E+00	-1.79898153E+02
4.25000000E+09	 1.00118140E+00	-1.79898895E+02
4.25500000E+09	 1.00103923E+00	-1.79897622E+02
4.26000000E+09	 1.00137693E+00	-1.79915593E+02
4.26500000E+09	 1.00121206E+00	-1.79901326E+02
4.27000000E+09	 1.00124045E+00	-1.79900698E+02
4.27500000E+09	 1.00103981E+00	-1.79904193E+02
4.28000000E+09	 1.00107301E+00	-1.79901313E+02
4.28500000E+09	 1.00110478E+00	-1.79908617E+02
4.29000000E+09	 1.00133112E+00	-1.79909550E+02
4.29500000E+09	 1.00118312E+00	-1.79917154E+02
4.30000000E+09	 1.00110674E+00	-1.79907054E+02
4.30500000E+09	 1.00110637E+00	-1.79905336E+02
4.31000000E+09	 1.00121008E+00	-1.79903773E+02
4.31500000E+09	 1.00117417E+00	-1.79911419E+02
4.32000000E+09	 1.00126245E+00	-1.79906273E+02
4.32500000E+09	 1.00132378E+00	-1.79905092E+02
4.33000000E+09	 1.00126087E+00	-1.79908112E+02
4.33500000E+09	 1.00129560E+00	-1.79908020E+02
4.34000000E+09	 1.00135317E+00	-1.79901348E+02
4.34500000E+09	 1.00132815E+00	-1.79899302E+02
4.35000000E+09	 1.00132853E+00	-1.79895555E+02
4.35500000E+09	 1.00137381E+00	-1.79900022E+02
4.36000000E+09	 1.00136216E+00	-1.79894520E+02
4.36500000E+09	 1.00152900E+00	-1.79894856E+02
4.37000000E+09	 1.00144820E+00	-1.79894369E+02
4.37500000E+09	 1.00147535E+00	-1.79889835E+02
4.38000000E+09	 1.00167808E+00	-1.79883032E+02
4.38500000E+09	 1.00144613E+00	-1.79897847E+02
4.39000000E+09	 1.00171533E+00	-1.79880999E+02
4.39500000E+09	 1.00157021E+00	-1.79877554E+02
4.40000000E+09	 1.00169806E+00	-1.79888831E+02
4.40500000E+09	 1.00168177E+00	-1.79876964E+02
4.41000000E+09	 1.00174339E+00	-1.79874897E+02
4.41500000E+09	 1.00183764E+00	-1.79865334E+02
4.42000000E+09	 1.00184678E+00	-1.79862051E+02
4.42500000E+09	 1.00190134E+00	-1.79835519E+02
4.43000000E+09	 1.00188595E+00	-1.79859978E+02
4.43500000E+09	 1.00186758E+00	-1.79845917E+02
4.44000000E+09	 1.00190077E+00	-1.79849629E+02
4.44500000E+09	 1.00213130E+00	-1.79843629E+02
4.45000000E+09	 1.00223033E+00	-1.79847307E+02
4.45500000E+09	 1.00223476E+00	-1.79829890E+02
4.46000000E+09	 1.00216195E+00	-1.79814338E+02
4.46500000E+09	 1.00218463E+00	-1.79838639E+02
4.47000000E+09	 1.00207675E+00	-1.79813732E+02
4.47500000E+09	 1.00237975E+00	-1.79791787E+02
4.48000000E+09	 1.00235895E+00	-1.79800809E+02
4.48500000E+09	 1.00260231E+00	-1.79787863E+02
4.49000000E+09	 1.00274387E+00	-1.79796471E+02
4.49500000E+09	 1.00240305E+00	-1.79786329E+02
4.50000000E+09	 1.00248019E+00	-1.79773855E+02
4.50500000E+09	 1.00277360E+00	-1.79780251E+02
4.51000000E+09	 1.00268449E+00	-1.79785341E+02
4.51500000E+09	 1.00290894E+00	-1.79766498E+02
4.52000000E+09	 1.00292715E+00	-1.79764861E+02
4.52500000E+09	 1.00296956E+00	-1.79753887E+02
4.53000000E+09	 1.00272484E+00	-1.79748751E+02
4.53500000E+09	 1.00301042E+00	-1.79737857E+02
4.54000000E+09	 1.00310102E+00	-1.79722193E+02
4.54500000E+09	 1.00331278E+00	-1.79711099E+02
4.55000000E+09	 1.00337443E+00	-1.79703613E+02
4.55500000E+09	 1.00340503E+00	-1.79698006E+02
4.56000000E+09	 1.00351198E+00	-1.79690096E+02
4.56500000E+09	 1.00356989E+00	-1.79684929E+02
4.57000000E+09	 1.00370761E+00	-1.79677962E+02
4.57500000E+09	 1.00377456E+00	-1.79673834E+02
4.58000000E+09	 1.00386189E+00	-1.79661815E+02
4.58500000E+09	 1.00396548E+00	-1.79654487E+02
4.59000000E+09	 1.00407308E+00	-1.79633860E+02
4.59500000E+09	 1.00412134E+00	-1.79635383E+02
4.60000000E+09	 1.00420618E+00	-1.79621994E+02
4.60500000E+09	 1.00424857E+00	-1.79619258E+02
4.61000000E+09	 1.00439270E+00	-1.79617326E+02
4.61500000E+09	 1.00457137E+00	-1.79606531E+02
4.62000000E+09	 1.00461960E+00	-1.79593716E+02
4.62500000E+09	 1.00469136E+00	-1.79591659E+02
4.63000000E+09	 1.00491702E+00	-1.79586997E+02
4.63500000E+09	 1.00496548E+00	-1.79571826E+02
4.64000000E+09	 1.00501899E+00	-1.79572230E+02
4.64500000E+09	 1.00552637E+00	-1.79549337E+02
4.65000000E+09	 1.00509930E+00	-1.79543636E+02
4.65500000E+09	 1.00549419E+00	-1.79546305E+02
4.66000000E+09	 1.00579479E+00	-1.79521740E+02
4.66500000E+09	 1.00614689E+00	-1.79541381E+02
4.67000000E+09	 1.00607076E+00	-1.79513719E+02
4.67500000E+09	 1.00613719E+00	-1.79507704E+02
4.68000000E+09	 1.00621608E+00	-1.79498984E+02
4.68500000E+09	 1.00661927E+00	-1.79494011E+02
4.69000000E+09	 1.00662990E+00	-1.79484302E+02
4.69500000E+09	 1.00657585E+00	-1.79481120E+02
4.70000000E+09	 1.00691978E+00	-1.79493990E+02
4.70500000E+09	 1.00728217E+00	-1.79483159E+02
4.71000000E+09	 1.00726638E+00	-1.79475400E+02
4.71500000E+09	 1.00740378E+00	-1.79451859E+02
4.72000000E+09	 1.00684659E+00	-1.79475522E+02
4.72500000E+09	 1.00713495E+00	-1.79461571E+02
4.73000000E+09	 1.00791652E+00	-1.79428299E+02
4.73500000E+09	 1.00764975E+00	-1.79455047E+02
4.74000000E+09	 1.00750904E+00	-1.79428296E+02
4.74500000E+09	 1.00748187E+00	-1.79391981E+02
4.75000000E+09	 1.00783170E+00	-1.79418563E+02
4.75500000E+09	 1.00806550E+00	-1.79422068E+02
4.76000000E+09	 1.00781135E+00	-1.79421220E+02
4.76500000E+09	 1.00813816E+00	-1.79386465E+02
4.77000000E+09	 1.00818387E+00	-1.79420832E+02
4.77500000E+09	 1.00820671E+00	-1.79435224E+02
4.78000000E+09	 1.00871805E+00	-1.79404765E+02
4.78500000E+09	 1.00845549E+00	-1.79409955E+02
4.79000000E+09	 1.00856311E+00	-1.79424171E+02
4.79500000E+09	 1.00916842E+00	-1.79400940E+02
4.80000000E+09	 1.00924369E+00	-1.79384846E+02
4.80500000E+09	 1.00912422E+00	-1.79359225E+02
4.81000000E+09	 1.00913663E+00	-1.79403178E+02
4.81500000E+09	 1.00921237E+00	-1.79385649E+02
4.82000000E+09	 1.00963589E+00	-1.79378323E+02
4.82500000E+09	 1.00954592E+00	-1.79371611E+02
4.83000000E+09	 1.01014259E+00	-1.79358256E+02
4.83500000E+09	 1.01002779E+00	-1.79373036E+02
4.84000000E+09	 1.01017302E+00	-1.79358268E+02
4.84500000E+09	 1.01013338E+00	-1.79357524E+02
4.85000000E+09	 1.01064526E+00	-1.79359700E+02
4.85500000E+09	 1.01074123E+00	-1.79341419E+02
4.86000000E+09	 1.01052574E+00	-1.79351183E+02
4.86500000E+09	 1.01061437E+00	-1.79324478E+02
4.87000000E+09	 1.01089563E+00	-1.79346288E+02
4.87500000E+09	 1.01106480E+00	-1.79335450E+02
4.88000000E+09	 1.01120222E+00	-1.79325166E+02
4.88500000E+09	 1.01121843E+00	-1.79331029E+02
4.89000000E+09	 1.01143862E+00	-1.79325462E+02
4.89500000E+09	 1.01150039E+00	-1.79318485E+02
4.90000000E+09	 1.01155417E+00	-1.79317566E+02
4.90500000E+09	 1.01165249E+00	-1.79310924E+02
4.91000000E+09	 1.01177340E+00	-1.79303465E+02
4.91500000E+09	 1.01175921E+00	-1.79302291E+02
4.92000000E+09	 1.01193145E+00	-1.79301604E+02
4.92500000E+09	 1.01205918E+00	-1.79288740E+02
4.93000000E+09	 1.01211408E+00	-1.79278085E+02
4.93500000E+09	 1.01216452E+00	-1.79278751E+02
4.94000000E+09	 1.01219399E+00	-1.79267318E+02
4.94500000E+09	 1.01236348E+00	-1.79248206E+02
4.95000000E+09	 1.01264619E+00	-1.79243053E+02
4.95500000E+09	 1.01279761E+00	-1.79240540E+02
4.96000000E+09	 1.01276118E+00	-1.79219303E+02
4.96500000E+09	 1.01312403E+00	-1.79218986E+02
4.97000000E+09	 1.01316570E+00	-1.79221462E+02
4.97500000E+09	 1.01321354E+00	-1.79209483E+02
4.98000000E+09	 1.01352515E+00	-1.79193590E+02
4.98500000E+09	 1.01379884E+00	-1.79177730E+02
4.99000000E+09	 1.01368644E+00	-1.79176491E+02
4.99500000E+09	 1.01402541E+00	-1.79165342E+02
5.00000000E+09	 1.01434020E+00	-1.79160006E+02
5.00500000E+09	 1.01455224E+00	-1.79146111E+02
5.01000000E+09	 1.01493239E+00	-1.79149304E+02
5.01500000E+09	 1.01500230E+00	-1.79129746E+02
5.02000000E+09	 1.01545283E+00	-1.79136391E+02
5.02500000E+09	 1.01559837E+00	-1.79138584E+02
5.03000000E+09	 1.01603129E+00	-1.79163007E+02
5.03500000E+09	 1.01613977E+00	-1.79143853E+02
5.04000000E+09	 1.01626178E+00	-1.79144189E+02
5.04500000E+09	 1.01638030E+00	-1.79148247E+02
5.05000000E+09	 1.01627521E+00	-1.79170737E+02
5.05500000E+09	 1.01665335E+00	-1.79160315E+02
5.06000000E+09	 1.01635305E+00	-1.79145847E+02
5.06500000E+09	 1.01667428E+00	-1.79147895E+02
5.07000000E+09	 1.01678311E+00	-1.79141220E+02
5.07500000E+09	 1.01648728E+00	-1.79133553E+02
5.08000000E+09	 1.01663071E+00	-1.79126877E+02
5.08500000E+09	 1.01668558E+00	-1.79125430E+02
5.09000000E+09	 1.01697842E+00	-1.79120361E+02
5.09500000E+09	 1.01675930E+00	-1.79090029E+02
5.10000000E+09	 1.01722459E+00	-1.79105276E+02
5.10500000E+09	 1.01758007E+00	-1.79110018E+02
5.11000000E+09	 1.01752405E+00	-1.79099808E+02
5.11500000E+09	 1.01739518E+00	-1.79107872E+02
5.12000000E+09	 1.01757216E+00	-1.79096867E+02
5.12500000E+09	 1.01762768E+00	-1.79090891E+02
5.13000000E+09	 1.01774720E+00	-1.79095240E+02
5.13500000E+09	 1.01781096E+00	-1.79091893E+02
5.14000000E+09	 1.01764342E+00	-1.79089647E+02
5.14500000E+09	 1.01771024E+00	-1.79093712E+02
5.15000000E+09	 1.01788769E+00	-1.79074210E+02
5.15500000E+09	 1.01808646E+00	-1.79067701E+02
5.16000000E+09	 1.01784189E+00	-1.79073159E+02
5.16500000E+09	 1.01775725E+00	-1.79068887E+02
5.17000000E+09	 1.01799348E+00	-1.79065601E+02
5.17500000E+09	 1.01813259E+00	-1.79057958E+02
5.18000000E+09	 1.01792761E+00	-1.79056896E+02
5.18500000E+09	 1.01801148E+00	-1.79056094E+02
5.19000000E+09	 1.01810728E+00	-1.79045269E+02
5.19500000E+09	 1.01806695E+00	-1.79047153E+02
5.20000000E+09	 1.01807141E+00	-1.79044213E+02
5.20500000E+09	 1.01811304E+00	-1.79040426E+02
5.21000000E+09	 1.01826497E+00	-1.79029680E+02
5.21500000E+09	 1.01813949E+00	-1.79033191E+02
5.22000000E+09	 1.01813986E+00	-1.79028127E+02
5.22500000E+09	 1.01806476E+00	-1.79024142E+02
5.23000000E+09	 1.01815982E+00	-1.79024429E+02
5.23500000E+09	 1.01806910E+00	-1.79025010E+02
5.24000000E+09	 1.01799721E+00	-1.79022619E+02
5.24500000E+09	 1.01825073E+00	-1.79010109E+02
5.25000000E+09	 1.01828681E+00	-1.79027403E+02
5.25500000E+09	 1.01768996E+00	-1.79014385E+02
5.26000000E+09	 1.01804926E+00	-1.79018830E+02
5.26500000E+09	 1.01789121E+00	-1.79000413E+02
5.27000000E+09	 1.01804913E+00	-1.79020394E+02
5.27500000E+09	 1.01773998E+00	-1.79004727E+02
5.28000000E+09	 1.01792363E+00	-1.79029376E+02
5.28500000E+09	 1.01770552E+00	-1.79028152E+02
5.29000000E+09	 1.01761123E+00	-1.79024131E+02
5.29500000E+09	 1.01719044E+00	-1.79017549E+02
5.30000000E+09	 1.01780209E+00	-1.79035171E+02
5.30500000E+09	 1.01770278E+00	-1.79011610E+02
5.31000000E+09	 1.01744094E+00	-1.79024710E+02
5.31500000E+09	 1.01739547E+00	-1.79020432E+02
5.32000000E+09	 1.01727169E+00	-1.79039297E+02
5.32500000E+09	 1.01702758E+00	-1.79016741E+02
5.33000000E+09	 1.01703682E+00	-1.79031897E+02
5.33500000E+09	 1.01705622E+00	-1.79065733E+02
5.34000000E+09	 1.01664298E+00	-1.79050700E+02
5.34500000E+09	 1.01694788E+00	-1.79040015E+02
5.35000000E+09	 1.01651326E+00	-1.79030426E+02
5.35500000E+09	 1.01627773E+00	-1.79048259E+02
5.36000000E+09	 1.01628726E+00	-1.79060203E+02
5.36500000E+09	 1.01634333E+00	-1.79067644E+02
5.37000000E+09	 1.01619726E+00	-1.79062394E+02
5.37500000E+09	 1.01618062E+00	-1.79071744E+02
5.38000000E+09	 1.01569068E+00	-1.79082748E+02
5.38500000E+09	 1.01503217E+00	-1.79067609E+02
5.39000000E+09	 1.01547046E+00	-1.79083206E+02
5.39500000E+09	 1.01545336E+00	-1.79106370E+02
5.40000000E+09	 1.01508269E+00	-1.79096358E+02
5.40500000E+09	 1.01474182E+00	-1.79113176E+02
5.41000000E+09	 1.01488725E+00	-1.79126178E+02
5.41500000E+09	 1.01434588E+00	-1.79133787E+02
5.42000000E+09	 1.01428526E+00	-1.79134057E+02
5.42500000E+09	 1.01423669E+00	-1.79135245E+02
5.43000000E+09	 1.01429806E+00	-1.79126079E+02
5.43500000E+09	 1.01384269E+00	-1.79164628E+02
5.44000000E+09	 1.01347541E+00	-1.79157484E+02
5.44500000E+09	 1.01363130E+00	-1.79163873E+02
5.45000000E+09	 1.01328135E+00	-1.79170599E+02
5.45500000E+09	 1.01320155E+00	-1.79185986E+02
5.46000000E+09	 1.01296992E+00	-1.79215496E+02
5.46500000E+09	 1.01265564E+00	-1.79207069E+02
5.47000000E+09	 1.01276341E+00	-1.79224339E+02
5.47500000E+09	 1.01263245E+00	-1.79222497E+02
5.48000000E+09	 1.01230956E+00	-1.79246788E+02
5.48500000E+09	 1.01207394E+00	-1.79252767E+02
5.49000000E+09	 1.01198481E+00	-1.79251558E+02
5.49500000E+09	 1.01187830E+00	-1.79270012E+02
5.50000000E+09	 1.01161301E+00	-1.79278801E+02
5.50500000E+09	 1.01141217E+00	-1.79287896E+02
5.51000000E+09	 1.01139707E+00	-1.79298373E+02
5.51500000E+09	 1.01106543E+00	-1.79298014E+02
5.52000000E+09	 1.01095947E+00	-1.79314859E+02
5.52500000E+09	 1.01085457E+00	-1.79331425E+02
5.53000000E+09	 1.01053631E+00	-1.79334755E+02
5.53500000E+09	 1.01060314E+00	-1.79343389E+02
5.54000000E+09	 1.01029523E+00	-1.79359130E+02
5.54500000E+09	 1.01010769E+00	-1.79364134E+02
5.55000000E+09	 1.00984698E+00	-1.79374980E+02
5.55500000E+09	 1.00976851E+00	-1.79397984E+02
5.56000000E+09	 1.00964143E+00	-1.79395694E+02
5.56500000E+09	 1.00926817E+00	-1.79395901E+02
5.57000000E+09	 1.00904805E+00	-1.79421353E+02
5.57500000E+09	 1.00906651E+00	-1.79444660E+02
5.58000000E+09	 1.00900642E+00	-1.79448927E+02
5.58500000E+09	 1.00834744E+00	-1.79438944E+02
5.59000000E+09	 1.00870442E+00	-1.79464127E+02
5.59500000E+09	 1.00849525E+00	-1.79465276E+02
5.60000000E+09	 1.00810052E+00	-1.79474951E+02
5.60500000E+09	 1.00805792E+00	-1.79470496E+02
5.61000000E+09	 1.00789816E+00	-1.79508285E+02
5.61500000E+09	 1.00752421E+00	-1.79519262E+02
5.62000000E+09	 1.00748512E+00	-1.79517135E+02
5.62500000E+09	 1.00719588E+00	-1.79508603E+02
5.63000000E+09	 1.00772075E+00	-1.79530111E+02
5.63500000E+09	 1.00714195E+00	-1.79539590E+02
5.64000000E+09	 1.00711928E+00	-1.79536546E+02
5.64500000E+09	 1.00714940E+00	-1.79579405E+02
5.65000000E+09	 1.00692995E+00	-1.79576540E+02
5.65500000E+09	 1.00663546E+00	-1.79568922E+02
5.66000000E+09	 1.00675671E+00	-1.79600165E+02
5.66500000E+09	 1.00643236E+00	-1.79605144E+02
5.67000000E+09	 1.00629169E+00	-1.79602215E+02
5.67500000E+09	 1.00622548E+00	-1.79607598E+02
5.68000000E+09	 1.00590019E+00	-1.79601242E+02
5.68500000E+09	 1.00585966E+00	-1.79635348E+02
5.69000000E+09	 1.00554948E+00	-1.79632191E+02
5.69500000E+09	 1.00571153E+00	-1.79617536E+02
5.70000000E+09	 1.00565981E+00	-1.79646342E+02
5.70500000E+09	 1.00532540E+00	-1.79664760E+02
5.71000000E+09	 1.00511652E+00	-1.79660344E+02
5.71500000E+09	 1.00504925E+00	-1.79674679E+02
5.72000000E+09	 1.00489642E+00	-1.79680119E+02
5.72500000E+09	 1.00474247E+00	-1.79690874E+02
5.73000000E+09	 1.00459754E+00	-1.79690462E+02
5.73500000E+09	 1.00467228E+00	-1.79707107E+02
5.74000000E+09	 1.00441110E+00	-1.79714269E+02
5.74500000E+09	 1.00417632E+00	-1.79722054E+02
5.75000000E+09	 1.00421156E+00	-1.79728780E+02
5.75500000E+09	 1.00401697E+00	-1.79735637E+02
5.76000000E+09	 1.00399242E+00	-1.79742179E+02
5.76500000E+09	 1.00376880E+00	-1.79753276E+02
5.77000000E+09	 1.00370987E+00	-1.79758555E+02
5.77500000E+09	 1.00353547E+00	-1.79770944E+02
5.78000000E+09	 1.00350039E+00	-1.79762452E+02
5.78500000E+09	 1.00316406E+00	-1.79762979E+02
5.79000000E+09	 1.00319279E+00	-1.79784056E+02
5.79500000E+09	 1.00312636E+00	-1.79788985E+02
5.80000000E+09	 1.00300047E+00	-1.79783659E+02
5.80500000E+09	 1.00286862E+00	-1.79795854E+02
5.81000000E+09	 1.00279179E+00	-1.79806311E+02
5.81500000E+09	 1.00265191E+00	-1.79811601E+02
5.82000000E+09	 1.00253549E+00	-1.79813786E+02
5.82500000E+09	 1.00232321E+00	-1.79820256E+02
5.83000000E+09	 1.00254085E+00	-1.79814934E+02
5.83500000E+09	 1.00235924E+00	-1.79826903E+02
5.84000000E+09	 1.00242973E+00	-1.79833955E+02
5.84500000E+09	 1.00221707E+00	-1.79850787E+02
5.85000000E+09	 1.00241438E+00	-1.79845731E+02
5.85500000E+09	 1.00197676E+00	-1.79844785E+02
5.86000000E+09	 1.00176414E+00	-1.79841096E+02
5.86500000E+09	 1.00163813E+00	-1.79860330E+02
5.87000000E+09	 1.00165009E+00	-1.79886579E+02
5.87500000E+09	 1.00192098E+00	-1.79871547E+02
5.88000000E+09	 1.00132090E+00	-1.79877403E+02
5.88500000E+09	 1.00172316E+00	-1.79861583E+02
5.89000000E+09	 1.00162752E+00	-1.79861458E+02
5.89500000E+09	 1.00143958E+00	-1.79862717E+02
5.90000000E+09	 1.00142770E+00	-1.79890635E+02
5.90500000E+09	 1.00146667E+00	-1.79903481E+02
5.91000000E+09	 1.00167360E+00	-1.79923419E+02
5.91500000E+09	 1.00139890E+00	-1.79892713E+02
5.92000000E+09	 1.00119108E+00	-1.79890289E+02
5.92500000E+09	 1.00131046E+00	-1.79914423E+02
5.93000000E+09	 1.00146481E+00	-1.79899004E+02
5.93500000E+09	 1.00042334E+00	-1.79916879E+02
5.94000000E+09	 1.00138884E+00	-1.79879081E+02
5.94500000E+09	 1.00139773E+00	-1.79872749E+02
5.95000000E+09	 1.00087727E+00	-1.79903010E+02
5.95500000E+09	 1.00097906E+00	-1.79897837E+02
5.96000000E+09	 1.00128913E+00	-1.79920428E+02
5.96500000E+09	 1.00059048E+00	-1.79903546E+02
5.97000000E+09	 1.00107934E+00	-1.79901353E+02
5.97500000E+09	 1.00079884E+00	-1.79914626E+02
5.98000000E+09	 1.00095431E+00	-1.79900427E+02
5.98500000E+09	 1.00082136E+00	-1.79897063E+02
5.99000000E+09	 1.00094608E+00	-1.79911038E+02
5.99500000E+09	 1.00127792E+00	-1.79915500E+02
6.00000000E+09	 1.00121140E+00	-1.79918839E+02
