! COPPER MOUNTAIN TECHNOLOGIES, R60, 23103002, 24.3.3/3.0
! Date: 24/6/2026 15:49:36
! Data: Format [Calibration Info]
! Frequency		S11: Mag/Ang F1                
# HZ S MA R 50
1.00000000E+08	 9.94639754E-01	-5.59872263E+00
1.05000000E+08	 9.94601641E-01	-5.87337503E+00
1.10000000E+08	 9.94573101E-01	-6.15770977E+00
1.15000000E+08	 9.94625674E-01	-6.43452893E+00
1.20000000E+08	 9.94431374E-01	-6.71241021E+00
1.25000000E+08	 9.94360619E-01	-6.99851137E+00
1.30000000E+08	 9.94391891E-01	-7.28636083E+00
1.35000000E+08	 9.94361474E-01	-7.55678160E+00
1.40000000E+08	 9.94285824E-01	-7.83382561E+00
1.45000000E+08	 9.94449233E-01	-8.12130650E+00
1.50000000E+08	 9.94317235E-01	-8.39981203E+00
1.55000000E+08	 9.94348812E-01	-8.67601308E+00
1.60000000E+08	 9.94335773E-01	-8.95621884E+00
1.65000000E+08	 9.94344003E-01	-9.23833735E+00
1.70000000E+08	 9.94367958E-01	-9.50340112E+00
1.75000000E+08	 9.94442281E-01	-9.78741312E+00
1.80000000E+08	 9.94360011E-01	-1.00578400E+01
1.85000000E+08	 9.94304405E-01	-1.03472584E+01
1.90000000E+08	 9.94416665E-01	-1.06218050E+01
1.95000000E+08	 9.94418471E-01	-1.08956628E+01
2.00000000E+08	 9.94387077E-01	-1.11736308E+01
2.05000000E+08	 9.94323096E-01	-1.14595395E+01
2.10000000E+08	 9.94334685E-01	-1.17380566E+01
2.15000000E+08	 9.94229573E-01	-1.20124116E+01
2.20000000E+08	 9.94223707E-01	-1.22982874E+01
2.25000000E+08	 9.94143281E-01	-1.25667256E+01
2.30000000E+08	 9.94113830E-01	-1.28481041E+01
2.35000000E+08	 9.94188884E-01	-1.31264281E+01
2.40000000E+08	 9.94211000E-01	-1.34059937E+01
2.45000000E+08	 9.94135051E-01	-1.36728422E+01
2.50000000E+08	 9.94232647E-01	-1.39494086E+01
2.55000000E+08	 9.94193209E-01	-1.42270092E+01
2.60000000E+08	 9.94273600E-01	-1.45019367E+01
2.65000000E+08	 9.94143164E-01	-1.47822505E+01
2.70000000E+08	 9.94168220E-01	-1.50600057E+01
2.75000000E+08	 9.94220004E-01	-1.53359154E+01
2.80000000E+08	 9.94296487E-01	-1.56129634E+01
2.85000000E+08	 9.94207378E-01	-1.58843329E+01
2.90000000E+08	 9.94134886E-01	-1.61633834E+01
2.95000000E+08	 9.94302278E-01	-1.64301567E+01
3.00000000E+08	 9.94371923E-01	-1.67189608E+01
3.05000000E+08	 9.94452175E-01	-1.69816264E+01
3.10000000E+08	 9.94352762E-01	-1.72585551E+01
3.15000000E+08	 9.94342890E-01	-1.75358469E+01
3.20000000E+08	 9.94490266E-01	-1.78118037E+01
3.25000000E+08	 9.94462838E-01	-1.80793623E+01
3.30000000E+08	 9.94454680E-01	-1.83534558E+01
3.35000000E+08	 9.94508336E-01	-1.86289587E+01
3.40000000E+08	 9.94549380E-01	-1.89077093E+01
3.45000000E+08	 9.94602237E-01	-1.91696808E+01
3.50000000E+08	 9.94742115E-01	-1.94426382E+01
3.55000000E+08	 9.94660811E-01	-1.97187258E+01
3.60000000E+08	 9.94721278E-01	-1.99918938E+01
3.65000000E+08	 9.94629152E-01	-2.02599960E+01
3.70000000E+08	 9.94663299E-01	-2.05351621E+01
3.75000000E+08	 9.94800516E-01	-2.08118904E+01
3.80000000E+08	 9.95011769E-01	-2.10796090E+01
3.85000000E+08	 9.95039554E-01	-2.13431166E+01
3.90000000E+08	 9.95211119E-01	-2.16189574E+01
3.95000000E+08	 9.95257471E-01	-2.18827546E+01
4.00000000E+08	 9.95300453E-01	-2.21518507E+01
4.05000000E+08	 9.95509652E-01	-2.24226349E+01
4.10000000E+08	 9.95531179E-01	-2.26910366E+01
4.15000000E+08	 9.95629886E-01	-2.29642541E+01
4.20000000E+08	 9.95679155E-01	-2.32305848E+01
4.25000000E+08	 9.95846645E-01	-2.35031924E+01
4.30000000E+08	 9.95945952E-01	-2.37629052E+01
4.35000000E+08	 9.96206126E-01	-2.40278403E+01
4.40000000E+08	 9.96113439E-01	-2.42984665E+01
4.45000000E+08	 9.96253054E-01	-2.45638531E+01
4.50000000E+08	 9.96247757E-01	-2.48352354E+01
4.55000000E+08	 9.96443393E-01	-2.50978820E+01
4.60000000E+08	 9.96657876E-01	-2.53620306E+01
4.65000000E+08	 9.96904924E-01	-2.56210561E+01
4.70000000E+08	 9.97040812E-01	-2.58901651E+01
4.75000000E+08	 9.97165850E-01	-2.61564603E+01
4.80000000E+08	 9.97283922E-01	-2.64188416E+01
4.85000000E+08	 9.97323179E-01	-2.66779441E+01
4.90000000E+08	 9.97438419E-01	-2.69420156E+01
4.95000000E+08	 9.97729084E-01	-2.71915955E+01
5.00000000E+08	 9.97917551E-01	-2.74503362E+01
5.05000000E+08	 9.98042744E-01	-2.77136281E+01
5.10000000E+08	 9.98215192E-01	-2.79692446E+01
5.15000000E+08	 9.98257074E-01	-2.82351967E+01
5.20000000E+08	 9.98399229E-01	-2.84887220E+01
5.25000000E+08	 9.98514749E-01	-2.87599812E+01
5.30000000E+08	 9.98767872E-01	-2.90120536E+01
5.35000000E+08	 9.98792430E-01	-2.92692404E+01
5.40000000E+08	 9.98990399E-01	-2.95282822E+01
5.45000000E+08	 9.99179308E-01	-2.97839446E+01
5.50000000E+08	 9.99363260E-01	-3.00352838E+01
5.55000000E+08	 9.99546148E-01	-3.02940579E+01
5.60000000E+08	 9.99663899E-01	-3.05457978E+01
5.65000000E+08	 9.99910269E-01	-3.08004056E+01
5.70000000E+08	 9.99976951E-01	-3.10514036E+01
5.75000000E+08	 1.00020700E+00	-3.13016587E+01
5.80000000E+08	 1.00031247E+00	-3.15579223E+01
5.85000000E+08	 1.00056612E+00	-3.18026070E+01
5.90000000E+08	 1.00070027E+00	-3.20557881E+01
5.95000000E+08	 1.00091145E+00	-3.23074185E+01
6.00000000E+08	 1.00116750E+00	-3.25581432E+01
6.05000000E+08	 1.00116981E+00	-3.28112167E+01
6.10000000E+08	 1.00141105E+00	-3.30517958E+01
6.15000000E+08	 1.00160411E+00	-3.32949851E+01
6.20000000E+08	 1.00175596E+00	-3.35381729E+01
6.25000000E+08	 1.00185197E+00	-3.37794166E+01
6.30000000E+08	 1.00207933E+00	-3.40191555E+01
6.35000000E+08	 1.00229494E+00	-3.42680121E+01
6.40000000E+08	 1.00222063E+00	-3.45102440E+01
6.45000000E+08	 1.00220925E+00	-3.47586477E+01
6.50000000E+08	 1.00256519E+00	-3.49922716E+01
6.55000000E+08	 1.00271667E+00	-3.52303880E+01
6.60000000E+08	 1.00276550E+00	-3.54757705E+01
6.65000000E+08	 1.00292684E+00	-3.57108976E+01
6.70000000E+08	 1.00302441E+00	-3.59594972E+01
6.75000000E+08	 1.00318256E+00	-3.61965472E+01
6.80000000E+08	 1.00324710E+00	-3.64345158E+01
6.85000000E+08	 1.00350048E+00	-3.66672361E+01
6.90000000E+08	 1.00361649E+00	-3.69057121E+01
6.95000000E+08	 1.00372254E+00	-3.71431939E+01
7.00000000E+08	 1.00375585E+00	-3.73765977E+01
7.05000000E+08	 1.00390065E+00	-3.76117993E+01
7.10000000E+08	 1.00402059E+00	-3.78389210E+01
7.15000000E+08	 1.00405512E+00	-3.80649372E+01
7.20000000E+08	 1.00422199E+00	-3.82974493E+01
7.25000000E+08	 1.00427918E+00	-3.85286597E+01
7.30000000E+08	 1.00443513E+00	-3.87596694E+01
7.35000000E+08	 1.00450839E+00	-3.90010314E+01
7.40000000E+08	 1.00460517E+00	-3.92262328E+01
7.45000000E+08	 1.00482863E+00	-3.94566693E+01
7.50000000E+08	 1.00494821E+00	-3.96930714E+01
7.55000000E+08	 1.00511415E+00	-3.99203659E+01
7.60000000E+08	 1.00511349E+00	-4.01411427E+01
7.65000000E+08	 1.00508963E+00	-4.03729603E+01
7.70000000E+08	 1.00518777E+00	-4.05988282E+01
7.75000000E+08	 1.00539970E+00	-4.08219398E+01
7.80000000E+08	 1.00534341E+00	-4.10537674E+01
7.85000000E+08	 1.00546911E+00	-4.12843695E+01
7.90000000E+08	 1.00556525E+00	-4.15014473E+01
7.95000000E+08	 1.00549631E+00	-4.17204700E+01
8.00000000E+08	 1.00556723E+00	-4.19412102E+01
8.05000000E+08	 1.00573282E+00	-4.21689596E+01
8.10000000E+08	 1.00572829E+00	-4.23824712E+01
8.15000000E+08	 1.00576516E+00	-4.26038201E+01
8.20000000E+08	 1.00580774E+00	-4.28262177E+01
8.25000000E+08	 1.00579067E+00	-4.30408700E+01
8.30000000E+08	 1.00580963E+00	-4.32663123E+01
8.35000000E+08	 1.00590214E+00	-4.34832962E+01
8.40000000E+08	 1.00594921E+00	-4.37030395E+01
8.45000000E+08	 1.00610321E+00	-4.39193438E+01
8.50000000E+08	 1.00586081E+00	-4.41322873E+01
8.55000000E+08	 1.00594957E+00	-4.43532302E+01
8.60000000E+08	 1.00602733E+00	-4.45716480E+01
8.65000000E+08	 1.00578122E+00	-4.47810553E+01
8.70000000E+08	 1.00593232E+00	-4.49905518E+01
8.75000000E+08	 1.00588059E+00	-4.52105555E+01
8.80000000E+08	 1.00589843E+00	-4.54172298E+01
8.85000000E+08	 1.00582579E+00	-4.56261006E+01
8.90000000E+08	 1.00551043E+00	-4.58436136E+01
8.95000000E+08	 1.00564040E+00	-4.60532218E+01
9.00000000E+08	 1.00544859E+00	-4.62621464E+01
9.05000000E+08	 1.00549612E+00	-4.64645558E+01
9.10000000E+08	 1.00542653E+00	-4.66777814E+01
9.15000000E+08	 1.00529159E+00	-4.68877288E+01
9.20000000E+08	 1.00512656E+00	-4.70974376E+01
9.25000000E+08	 1.00517671E+00	-4.72986840E+01
9.30000000E+08	 1.00488933E+00	-4.75075272E+01
9.35000000E+08	 1.00481612E+00	-4.77082598E+01
9.40000000E+08	 1.00465208E+00	-4.79090688E+01
9.45000000E+08	 1.00436170E+00	-4.81072362E+01
9.50000000E+08	 1.00426530E+00	-4.83034544E+01
9.55000000E+08	 1.00398469E+00	-4.85114094E+01
9.60000000E+08	 1.00379108E+00	-4.87156985E+01
9.65000000E+08	 1.00356290E+00	-4.89092066E+01
9.70000000E+08	 1.00336389E+00	-4.91180125E+01
9.75000000E+08	 1.00321678E+00	-4.93205991E+01
9.80000000E+08	 1.00315319E+00	-4.95206401E+01
9.85000000E+08	 1.00294952E+00	-4.97148714E+01
9.90000000E+08	 1.00286437E+00	-4.99062855E+01
9.95000000E+08	 1.00269385E+00	-5.00955136E+01
1.00000000E+09	 1.00258181E+00	-5.02961100E+01
1.00500000E+09	 1.00247697E+00	-5.04843225E+01
1.01000000E+09	 1.00209463E+00	-5.06761412E+01
1.01500000E+09	 1.00189176E+00	-5.08732733E+01
1.02000000E+09	 1.00167668E+00	-5.10697155E+01
1.02500000E+09	 1.00142328E+00	-5.12470571E+01
1.03000000E+09	 1.00102379E+00	-5.14430603E+01
1.03500000E+09	 1.00052224E+00	-5.16312055E+01
1.04000000E+09	 1.00024709E+00	-5.18248530E+01
1.04500000E+09	 9.99929958E-01	-5.20037735E+01
1.05000000E+09	 9.99574296E-01	-5.21981881E+01
1.05500000E+09	 9.99059175E-01	-5.23867467E+01
1.06000000E+09	 9.98630303E-01	-5.25794963E+01
1.06500000E+09	 9.98371740E-01	-5.27595628E+01
1.07000000E+09	 9.97913854E-01	-5.29504544E+01
1.07500000E+09	 9.97577243E-01	-5.31352811E+01
1.08000000E+09	 9.97157516E-01	-5.33268246E+01
1.08500000E+09	 9.96840873E-01	-5.35019489E+01
1.09000000E+09	 9.96285705E-01	-5.36869425E+01
1.09500000E+09	 9.95928090E-01	-5.38796351E+01
1.10000000E+09	 9.95396298E-01	-5.40560696E+01
1.10500000E+09	 9.94933653E-01	-5.42383904E+01
1.11000000E+09	 9.94416105E-01	-5.44194809E+01
1.11500000E+09	 9.93868174E-01	-5.45948131E+01
1.12000000E+09	 9.93477219E-01	-5.47750279E+01
1.12500000E+09	 9.92891146E-01	-5.49517527E+01
1.13000000E+09	 9.92369588E-01	-5.51240554E+01
1.13500000E+09	 9.91821939E-01	-5.52992042E+01
1.14000000E+09	 9.91303455E-01	-5.54690319E+01
1.14500000E+09	 9.90681291E-01	-5.56478563E+01
1.15000000E+09	 9.90002692E-01	-5.58219804E+01
1.15500000E+09	 9.89330246E-01	-5.59936990E+01
1.16000000E+09	 9.88456264E-01	-5.61814411E+01
1.16500000E+09	 9.87911352E-01	-5.63563285E+01
1.17000000E+09	 9.87129899E-01	-5.65268976E+01
1.17500000E+09	 9.86353736E-01	-5.67028270E+01
1.18000000E+09	 9.85608544E-01	-5.68793240E+01
1.18500000E+09	 9.84799979E-01	-5.70555612E+01
1.19000000E+09	 9.84157033E-01	-5.72264145E+01
1.19500000E+09	 9.83436008E-01	-5.73970025E+01
1.20000000E+09	 9.82527561E-01	-5.75660366E+01
1.20500000E+09	 9.81381322E-01	-5.77299192E+01
1.21000000E+09	 9.80433523E-01	-5.79008648E+01
1.21500000E+09	 9.79667738E-01	-5.80726449E+01
1.22000000E+09	 9.78543720E-01	-5.82315635E+01
1.22500000E+09	 9.77437940E-01	-5.83969794E+01
1.23000000E+09	 9.76490563E-01	-5.85536906E+01
1.23500000E+09	 9.75524886E-01	-5.87136953E+01
1.24000000E+09	 9.74414788E-01	-5.88691331E+01
1.24500000E+09	 9.73515432E-01	-5.90144579E+01
1.25000000E+09	 9.72628216E-01	-5.91672670E+01
1.25500000E+09	 9.71817347E-01	-5.93206815E+01
1.26000000E+09	 9.70767125E-01	-5.94687522E+01
1.26500000E+09	 9.69938784E-01	-5.96187054E+01
1.27000000E+09	 9.69256178E-01	-5.97754521E+01
1.27500000E+09	 9.68559550E-01	-5.99360306E+01
1.28000000E+09	 9.67590792E-01	-6.00975305E+01
1.28500000E+09	 9.66653538E-01	-6.02653280E+01
1.29000000E+09	 9.65844109E-01	-6.04291638E+01
1.29500000E+09	 9.64862459E-01	-6.05989320E+01
1.30000000E+09	 9.64037036E-01	-6.07614095E+01
1.30500000E+09	 9.63014804E-01	-6.09332901E+01
1.31000000E+09	 9.62172099E-01	-6.11063788E+01
1.31500000E+09	 9.61213387E-01	-6.12772715E+01
1.32000000E+09	 9.60207789E-01	-6.14476665E+01
1.32500000E+09	 9.59222910E-01	-6.16164242E+01
1.33000000E+09	 9.58078377E-01	-6.17990581E+01
1.33500000E+09	 9.57059637E-01	-6.19718447E+01
1.34000000E+09	 9.55897294E-01	-6.21441745E+01
1.34500000E+09	 9.54964097E-01	-6.23143636E+01
1.35000000E+09	 9.53751290E-01	-6.24894318E+01
1.35500000E+09	 9.52619871E-01	-6.26642187E+01
1.36000000E+09	 9.51472941E-01	-6.28368220E+01
1.36500000E+09	 9.50205252E-01	-6.30076100E+01
1.37000000E+09	 9.49253337E-01	-6.31904167E+01
1.37500000E+09	 9.48220797E-01	-6.33685880E+01
1.38000000E+09	 9.47018645E-01	-6.35523356E+01
1.38500000E+09	 9.45768094E-01	-6.37182212E+01
1.39000000E+09	 9.44549443E-01	-6.38973515E+01
1.39500000E+09	 9.43419053E-01	-6.40666669E+01
1.40000000E+09	 9.42273250E-01	-6.42556876E+01
1.40500000E+09	 9.41009848E-01	-6.44250795E+01
1.41000000E+09	 9.39782421E-01	-6.45939020E+01
1.41500000E+09	 9.38465331E-01	-6.47741095E+01
1.42000000E+09	 9.37153656E-01	-6.49546227E+01
1.42500000E+09	 9.35837721E-01	-6.51333080E+01
1.43000000E+09	 9.34493078E-01	-6.53086972E+01
1.43500000E+09	 9.33122539E-01	-6.54885648E+01
1.44000000E+09	 9.31873885E-01	-6.56694039E+01
1.44500000E+09	 9.30555467E-01	-6.58551377E+01
1.45000000E+09	 9.29332126E-01	-6.60282145E+01
1.45500000E+09	 9.28180850E-01	-6.62138974E+01
1.46000000E+09	 9.26943587E-01	-6.63988982E+01
1.46500000E+09	 9.25648396E-01	-6.65809415E+01
1.47000000E+09	 9.24499870E-01	-6.67601761E+01
1.47500000E+09	 9.23215940E-01	-6.69532751E+01
1.48000000E+09	 9.22047789E-01	-6.71348172E+01
1.48500000E+09	 9.20978563E-01	-6.73176333E+01
1.49000000E+09	 9.19762537E-01	-6.75043507E+01
1.49500000E+09	 9.18567826E-01	-6.76905718E+01
1.50000000E+09	 9.17498505E-01	-6.78725588E+01
1.50500000E+09	 9.16270689E-01	-6.80519969E+01
1.51000000E+09	 9.14944781E-01	-6.82369317E+01
1.51500000E+09	 9.13859041E-01	-6.84198690E+01
1.52000000E+09	 9.12439272E-01	-6.86099663E+01
1.52500000E+09	 9.11177835E-01	-6.87970173E+01
1.53000000E+09	 9.10007964E-01	-6.89866592E+01
1.53500000E+09	 9.08546773E-01	-6.91792682E+01
1.54000000E+09	 9.07263970E-01	-6.93673582E+01
1.54500000E+09	 9.05956830E-01	-6.95621776E+01
1.55000000E+09	 9.04679526E-01	-6.97465003E+01
1.55500000E+09	 9.03448510E-01	-6.99374096E+01
1.56000000E+09	 9.01990061E-01	-7.01233155E+01
1.56500000E+09	 9.00757433E-01	-7.03168432E+01
1.57000000E+09	 8.99260401E-01	-7.05095762E+01
1.57500000E+09	 8.97817208E-01	-7.07054477E+01
1.58000000E+09	 8.96495087E-01	-7.09038807E+01
1.58500000E+09	 8.94973230E-01	-7.11044655E+01
1.59000000E+09	 8.93648418E-01	-7.12970299E+01
1.59500000E+09	 8.92399701E-01	-7.15024153E+01
1.60000000E+09	 8.91121920E-01	-7.17115593E+01
1.60500000E+09	 8.89898834E-01	-7.19202829E+01
1.61000000E+09	 8.88700699E-01	-7.21109569E+01
1.61500000E+09	 8.87478776E-01	-7.23000549E+01
1.62000000E+09	 8.86334353E-01	-7.25044993E+01
1.62500000E+09	 8.85010139E-01	-7.26951314E+01
1.63000000E+09	 8.83746596E-01	-7.29071934E+01
1.63500000E+09	 8.82227300E-01	-7.31008638E+01
1.64000000E+09	 8.81132196E-01	-7.33061832E+01
1.64500000E+09	 8.79716515E-01	-7.35088065E+01
1.65000000E+09	 8.78460860E-01	-7.37032532E+01
1.65500000E+09	 8.77467890E-01	-7.39036554E+01
1.66000000E+09	 8.76110158E-01	-7.41102728E+01
1.66500000E+09	 8.74803380E-01	-7.43065110E+01
1.67000000E+09	 8.73578636E-01	-7.45202812E+01
1.67500000E+09	 8.72348482E-01	-7.47190968E+01
1.68000000E+09	 8.70929681E-01	-7.49251339E+01
1.68500000E+09	 8.69630893E-01	-7.51149969E+01
1.69000000E+09	 8.68393872E-01	-7.53257857E+01
1.69500000E+09	 8.66991540E-01	-7.55234845E+01
1.70000000E+09	 8.65803813E-01	-7.57313810E+01
1.70500000E+09	 8.64322834E-01	-7.59372789E+01
1.71000000E+09	 8.62618244E-01	-7.61288925E+01
1.71500000E+09	 8.61129481E-01	-7.63306896E+01
1.72000000E+09	 8.59639633E-01	-7.65280869E+01
1.72500000E+09	 8.58293103E-01	-7.67294814E+01
1.73000000E+09	 8.56869472E-01	-7.69377989E+01
1.73500000E+09	 8.55203203E-01	-7.71370560E+01
1.74000000E+09	 8.54039527E-01	-7.73344752E+01
1.74500000E+09	 8.52382583E-01	-7.75368408E+01
1.75000000E+09	 8.51327008E-01	-7.77355451E+01
1.75500000E+09	 8.50165057E-01	-7.79303330E+01
1.76000000E+09	 8.48815073E-01	-7.81338767E+01
1.76500000E+09	 8.47808366E-01	-7.83320746E+01
1.77000000E+09	 8.46964788E-01	-7.85361469E+01
1.77500000E+09	 8.46058308E-01	-7.87333590E+01
1.78000000E+09	 8.45282106E-01	-7.89216277E+01
1.78500000E+09	 8.44315561E-01	-7.91005142E+01
1.79000000E+09	 8.43578309E-01	-7.92878885E+01
1.79500000E+09	 8.42618299E-01	-7.94777401E+01
1.80000000E+09	 8.41756325E-01	-7.96850879E+01
1.80500000E+09	 8.41040739E-01	-7.98938567E+01
1.81000000E+09	 8.40306896E-01	-8.01177097E+01
1.81500000E+09	 8.39767994E-01	-8.03233913E+01
1.82000000E+09	 8.39371673E-01	-8.05413324E+01
1.82500000E+09	 8.38702681E-01	-8.07600968E+01
1.83000000E+09	 8.38269566E-01	-8.09625420E+01
1.83500000E+09	 8.37612020E-01	-8.11750097E+01
1.84000000E+09	 8.36805372E-01	-8.13937106E+01
1.84500000E+09	 8.36308317E-01	-8.15955941E+01
1.85000000E+09	 8.35653859E-01	-8.18270536E+01
1.85500000E+09	 8.35084289E-01	-8.20363530E+01
1.86000000E+09	 8.34500732E-01	-8.22690693E+01
1.86500000E+09	 8.33424298E-01	-8.24779629E+01
1.87000000E+09	 8.32813518E-01	-8.27254959E+01
1.87500000E+09	 8.32249727E-01	-8.29658614E+01
1.88000000E+09	 8.31645029E-01	-8.32065981E+01
1.88500000E+09	 8.31133094E-01	-8.34521693E+01
1.89000000E+09	 8.30868003E-01	-8.36740367E+01
1.89500000E+09	 8.30397816E-01	-8.39022001E+01
1.90000000E+09	 8.29840113E-01	-8.41279803E+01
1.90500000E+09	 8.29110861E-01	-8.43584367E+01
1.91000000E+09	 8.28295320E-01	-8.45934838E+01
1.91500000E+09	 8.27639655E-01	-8.48413887E+01
1.92000000E+09	 8.27202833E-01	-8.50787959E+01
1.92500000E+09	 8.26701611E-01	-8.53163778E+01
1.93000000E+09	 8.26163510E-01	-8.55569539E+01
1.93500000E+09	 8.25787549E-01	-8.58032334E+01
1.94000000E+09	 8.25239916E-01	-8.60455579E+01
1.94500000E+09	 8.24753543E-01	-8.62844783E+01
1.95000000E+09	 8.24272981E-01	-8.65333242E+01
1.95500000E+09	 8.23934121E-01	-8.67767835E+01
1.96000000E+09	 8.23376656E-01	-8.70291458E+01
1.96500000E+09	 8.22917408E-01	-8.72810266E+01
1.97000000E+09	 8.22631978E-01	-8.75268595E+01
1.97500000E+09	 8.22337383E-01	-8.77801132E+01
1.98000000E+09	 8.21904225E-01	-8.80398133E+01
1.98500000E+09	 8.21504942E-01	-8.82759467E+01
1.99000000E+09	 8.21155796E-01	-8.85303881E+01
1.99500000E+09	 8.20908566E-01	-8.87795126E+01
2.00000000E+09	 8.20657249E-01	-8.90391311E+01
2.00500000E+09	 8.20335697E-01	-8.92812932E+01
2.01000000E+09	 8.20165399E-01	-8.95267566E+01
2.01500000E+09	 8.19925464E-01	-8.97746655E+01
2.02000000E+09	 8.19738185E-01	-9.00257293E+01
2.02500000E+09	 8.19483881E-01	-9.02695108E+01
2.03000000E+09	 8.19426301E-01	-9.05209162E+01
2.03500000E+09	 8.19349946E-01	-9.07641726E+01
2.04000000E+09	 8.19176264E-01	-9.10087381E+01
2.04500000E+09	 8.19144548E-01	-9.12541572E+01
2.05000000E+09	 8.18879716E-01	-9.14910172E+01
2.05500000E+09	 8.19005838E-01	-9.17469270E+01
2.06000000E+09	 8.18900109E-01	-9.19765554E+01
2.06500000E+09	 8.18923505E-01	-9.22214418E+01
2.07000000E+09	 8.18753663E-01	-9.24557235E+01
2.07500000E+09	 8.19000389E-01	-9.27018542E+01
2.08000000E+09	 8.19198604E-01	-9.29448938E+01
2.08500000E+09	 8.19328281E-01	-9.31796598E+01
2.09000000E+09	 8.19619786E-01	-9.34025264E+01
2.09500000E+09	 8.19945982E-01	-9.36424819E+01
2.10000000E+09	 8.20147505E-01	-9.38738920E+01
2.10500000E+09	 8.20444862E-01	-9.41028350E+01
2.11000000E+09	 8.20868723E-01	-9.43413508E+01
2.11500000E+09	 8.21142489E-01	-9.45680968E+01
2.12000000E+09	 8.21568495E-01	-9.47969775E+01
2.12500000E+09	 8.21760285E-01	-9.50359677E+01
2.13000000E+09	 8.22108352E-01	-9.52642575E+01
2.13500000E+09	 8.22703592E-01	-9.54995757E+01
2.14000000E+09	 8.23168965E-01	-9.57252108E+01
2.14500000E+09	 8.23585907E-01	-9.59611399E+01
2.15000000E+09	 8.24225964E-01	-9.62007229E+01
2.15500000E+09	 8.24483765E-01	-9.64298951E+01
2.16000000E+09	 8.24979794E-01	-9.66587354E+01
2.16500000E+09	 8.25545308E-01	-9.68910394E+01
2.17000000E+09	 8.26189022E-01	-9.71138394E+01
2.17500000E+09	 8.26718182E-01	-9.73557836E+01
2.18000000E+09	 8.27215827E-01	-9.75805516E+01
2.18500000E+09	 8.27772346E-01	-9.78177435E+01
2.19000000E+09	 8.28485262E-01	-9.80518664E+01
2.19500000E+09	 8.28975945E-01	-9.82681634E+01
2.20000000E+09	 8.29524164E-01	-9.84961125E+01
2.20500000E+09	 8.30278848E-01	-9.87197102E+01
2.21000000E+09	 8.31024851E-01	-9.89435085E+01
2.21500000E+09	 8.31657910E-01	-9.91622872E+01
2.22000000E+09	 8.32279187E-01	-9.93939289E+01
2.22500000E+09	 8.32980131E-01	-9.96121786E+01
2.23000000E+09	 8.33741360E-01	-9.98460137E+01
2.23500000E+09	 8.34490268E-01	-1.00053702E+02
2.24000000E+09	 8.35204253E-01	-1.00267387E+02
2.24500000E+09	 8.35968780E-01	-1.00480137E+02
2.25000000E+09	 8.36846111E-01	-1.00688700E+02
2.25500000E+09	 8.37685362E-01	-1.00886718E+02
2.26000000E+09	 8.38171998E-01	-1.01096757E+02
2.26500000E+09	 8.39027867E-01	-1.01294578E+02
2.27000000E+09	 8.39680277E-01	-1.01512289E+02
2.27500000E+09	 8.40622842E-01	-1.01697514E+02
2.28000000E+09	 8.41460734E-01	-1.01896086E+02
2.28500000E+09	 8.42285497E-01	-1.02097760E+02
2.29000000E+09	 8.43045187E-01	-1.02292609E+02
2.29500000E+09	 8.43788691E-01	-1.02481032E+02
2.30000000E+09	 8.44490394E-01	-1.02692420E+02
2.30500000E+09	 8.45412423E-01	-1.02866098E+02
2.31000000E+09	 8.45997650E-01	-1.03057529E+02
2.31500000E+09	 8.47053496E-01	-1.03245944E+02
2.32000000E+09	 8.47989692E-01	-1.03429828E+02
2.32500000E+09	 8.48839730E-01	-1.03618435E+02
2.33000000E+09	 8.49509408E-01	-1.03800844E+02
2.33500000E+09	 8.50579829E-01	-1.03991387E+02
2.34000000E+09	 8.51501032E-01	-1.04167795E+02
2.34500000E+09	 8.52588462E-01	-1.04342821E+02
2.35000000E+09	 8.53408478E-01	-1.04517389E+02
2.35500000E+09	 8.54647856E-01	-1.04686637E+02
2.36000000E+09	 8.55611692E-01	-1.04860682E+02
2.36500000E+09	 8.56732762E-01	-1.05036235E+02
2.37000000E+09	 8.57900120E-01	-1.05194248E+02
2.37500000E+09	 8.58932117E-01	-1.05361346E+02
2.38000000E+09	 8.60077785E-01	-1.05523929E+02
2.38500000E+09	 8.61443797E-01	-1.05687933E+02
2.39000000E+09	 8.62582337E-01	-1.05840681E+02
2.39500000E+09	 8.63802551E-01	-1.05991040E+02
2.40000000E+09	 8.65262176E-01	-1.06146011E+02
2.40500000E+09	 8.66475137E-01	-1.06283122E+02
2.41000000E+09	 8.67872198E-01	-1.06429547E+02
2.41500000E+09	 8.69271057E-01	-1.06584327E+02
2.42000000E+09	 8.70499704E-01	-1.06716775E+02
2.42500000E+09	 8.71900824E-01	-1.06863831E+02
2.43000000E+09	 8.73039220E-01	-1.07003250E+02
2.43500000E+09	 8.74619256E-01	-1.07128736E+02
2.44000000E+09	 8.76097200E-01	-1.07271045E+02
2.44500000E+09	 8.77374924E-01	-1.07402164E+02
2.45000000E+09	 8.78770675E-01	-1.07548015E+02
2.45500000E+09	 8.80257228E-01	-1.07678263E+02
2.46000000E+09	 8.81886996E-01	-1.07811583E+02
2.46500000E+09	 8.83182035E-01	-1.07939786E+02
2.47000000E+09	 8.84646079E-01	-1.08059254E+02
2.47500000E+09	 8.86287445E-01	-1.08180128E+02
2.48000000E+09	 8.87670720E-01	-1.08301354E+02
2.48500000E+09	 8.89225081E-01	-1.08416943E+02
2.49000000E+09	 8.90626326E-01	-1.08545500E+02
2.49500000E+09	 8.92064649E-01	-1.08649394E+02
2.50000000E+09	 8.93565501E-01	-1.08777713E+02
2.50500000E+09	 8.94816783E-01	-1.08882859E+02
2.51000000E+09	 8.96231104E-01	-1.09007688E+02
2.51500000E+09	 8.97716027E-01	-1.09114566E+02
2.52000000E+09	 8.98936727E-01	-1.09224136E+02
2.52500000E+09	 9.00231416E-01	-1.09339440E+02
2.53000000E+09	 9.01706902E-01	-1.09449191E+02
2.53500000E+09	 9.02920023E-01	-1.09555737E+02
2.54000000E+09	 9.04185295E-01	-1.09668491E+02
2.54500000E+09	 9.05427717E-01	-1.09775303E+02
2.55000000E+09	 9.06769828E-01	-1.09903344E+02
2.55500000E+09	 9.08030805E-01	-1.10003492E+02
2.56000000E+09	 9.09255963E-01	-1.10111371E+02
2.56500000E+09	 9.10676566E-01	-1.10218102E+02
2.57000000E+09	 9.12018605E-01	-1.10329056E+02
2.57500000E+09	 9.13389906E-01	-1.10431142E+02
2.58000000E+09	 9.14811011E-01	-1.10536538E+02
2.58500000E+09	 9.16240983E-01	-1.10630802E+02
2.59000000E+09	 9.17628412E-01	-1.10739123E+02
2.59500000E+09	 9.18936414E-01	-1.10819640E+02
2.60000000E+09	 9.20389120E-01	-1.10921752E+02
2.60500000E+09	 9.22008871E-01	-1.11010992E+02
2.61000000E+09	 9.23220532E-01	-1.11106135E+02
2.61500000E+09	 9.24652369E-01	-1.11183421E+02
2.62000000E+09	 9.26087745E-01	-1.11271319E+02
2.62500000E+09	 9.27296778E-01	-1.11350053E+02
2.63000000E+09	 9.28717139E-01	-1.11434211E+02
2.63500000E+09	 9.30110911E-01	-1.11501639E+02
2.64000000E+09	 9.31367418E-01	-1.11573918E+02
2.64500000E+09	 9.32648322E-01	-1.11640290E+02
2.65000000E+09	 9.34130618E-01	-1.11703421E+02
2.65500000E+09	 9.35312761E-01	-1.11786164E+02
2.66000000E+09	 9.36609546E-01	-1.11841146E+02
2.66500000E+09	 9.37713418E-01	-1.11897166E+02
2.67000000E+09	 9.39033886E-01	-1.11946078E+02
2.67500000E+09	 9.40016217E-01	-1.12019413E+02
2.68000000E+09	 9.41080843E-01	-1.12079021E+02
2.68500000E+09	 9.42357302E-01	-1.12150537E+02
2.69000000E+09	 9.43418199E-01	-1.12218882E+02
2.69500000E+09	 9.44715974E-01	-1.12295275E+02
2.70000000E+09	 9.45868382E-01	-1.12361010E+02
2.70500000E+09	 9.47272973E-01	-1.12431006E+02
2.71000000E+09	 9.48523296E-01	-1.12494942E+02
2.71500000E+09	 9.50036295E-01	-1.12564126E+02
2.72000000E+09	 9.51532477E-01	-1.12619908E+02
2.72500000E+09	 9.53152276E-01	-1.12662259E+02
2.73000000E+09	 9.54863531E-01	-1.12705589E+02
2.73500000E+09	 9.56426210E-01	-1.12745984E+02
2.74000000E+09	 9.57784942E-01	-1.12778060E+02
2.74500000E+09	 9.59248954E-01	-1.12812092E+02
2.75000000E+09	 9.60848320E-01	-1.12834526E+02
2.75500000E+09	 9.62074908E-01	-1.12858649E+02
2.76000000E+09	 9.63369903E-01	-1.12872580E+02
2.76500000E+09	 9.64503762E-01	-1.12901449E+02
2.77000000E+09	 9.65550184E-01	-1.12900652E+02
2.77500000E+09	 9.66675476E-01	-1.12912791E+02
2.78000000E+09	 9.67833879E-01	-1.12919891E+02
2.78500000E+09	 9.68754314E-01	-1.12925398E+02
2.79000000E+09	 9.69732651E-01	-1.12923119E+02
2.79500000E+09	 9.70620377E-01	-1.12926765E+02
2.80000000E+09	 9.71495499E-01	-1.12923702E+02
2.80500000E+09	 9.72379957E-01	-1.12925573E+02
2.81000000E+09	 9.73132381E-01	-1.12937444E+02
2.81500000E+09	 9.73670376E-01	-1.12945970E+02
2.82000000E+09	 9.74361553E-01	-1.12945922E+02
2.82500000E+09	 9.75100558E-01	-1.12977347E+02
2.83000000E+09	 9.75631054E-01	-1.12992824E+02
2.83500000E+09	 9.76216922E-01	-1.12994384E+02
2.84000000E+09	 9.77029257E-01	-1.13012561E+02
2.84500000E+09	 9.77806219E-01	-1.13028101E+02
2.85000000E+09	 9.78535088E-01	-1.13025563E+02
2.85500000E+09	 9.79195911E-01	-1.13065697E+02
2.86000000E+09	 9.79778418E-01	-1.13088895E+02
2.86500000E+09	 9.80532269E-01	-1.13087963E+02
2.87000000E+09	 9.81562343E-01	-1.13108832E+02
2.87500000E+09	 9.82371057E-01	-1.13109518E+02
2.88000000E+09	 9.83231525E-01	-1.13090242E+02
2.88500000E+09	 9.84099621E-01	-1.13082357E+02
2.89000000E+09	 9.84937235E-01	-1.13049403E+02
2.89500000E+09	 9.85668138E-01	-1.13018681E+02
2.90000000E+09	 9.85886309E-01	-1.12981525E+02
2.90500000E+09	 9.86415169E-01	-1.12944050E+02
2.91000000E+09	 9.86276308E-01	-1.12889693E+02
2.91500000E+09	 9.86045659E-01	-1.12870213E+02
2.92000000E+09	 9.85849555E-01	-1.12851131E+02
2.92500000E+09	 9.85719281E-01	-1.12824691E+02
2.93000000E+09	 9.85263714E-01	-1.12782030E+02
2.93500000E+09	 9.85249851E-01	-1.12782929E+02
2.94000000E+09	 9.84846267E-01	-1.12772956E+02
2.94500000E+09	 9.84790588E-01	-1.12779635E+02
2.95000000E+09	 9.84489805E-01	-1.12787803E+02
2.95500000E+09	 9.84251289E-01	-1.12792897E+02
2.96000000E+09	 9.84238297E-01	-1.12807441E+02
2.96500000E+09	 9.84481035E-01	-1.12823893E+02
2.97000000E+09	 9.84620672E-01	-1.12823220E+02
2.97500000E+09	 9.84633788E-01	-1.12834916E+02
2.98000000E+09	 9.84841871E-01	-1.12841831E+02
2.98500000E+09	 9.85481205E-01	-1.12858016E+02
2.99000000E+09	 9.85994038E-01	-1.12859047E+02
2.99500000E+09	 9.86687643E-01	-1.12843142E+02
3.00000000E+09	 9.87514209E-01	-1.12818720E+02
3.00500000E+09	 9.84055684E-01	-1.12708239E+02
3.01000000E+09	 9.84409787E-01	-1.12726673E+02
3.01500000E+09	 9.84957044E-01	-1.12729241E+02
3.02000000E+09	 9.85445900E-01	-1.12746663E+02
3.02500000E+09	 9.86471538E-01	-1.12762270E+02
3.03000000E+09	 9.87457195E-01	-1.12726032E+02
3.03500000E+09	 9.88349027E-01	-1.12694955E+02
3.04000000E+09	 9.89575633E-01	-1.12637335E+02
3.04500000E+09	 9.90149451E-01	-1.12569229E+02
3.05000000E+09	 9.90972445E-01	-1.12497707E+02
3.05500000E+09	 9.91595288E-01	-1.12416903E+02
3.06000000E+09	 9.92034988E-01	-1.12301160E+02
3.06500000E+09	 9.92256177E-01	-1.12168345E+02
3.07000000E+09	 9.91921633E-01	-1.12053016E+02
3.07500000E+09	 9.91450874E-01	-1.11949490E+02
3.08000000E+09	 9.90751735E-01	-1.11834743E+02
3.08500000E+09	 9.90096397E-01	-1.11705454E+02
3.09000000E+09	 9.88789703E-01	-1.11578139E+02
3.09500000E+09	 9.87047079E-01	-1.11480425E+02
3.10000000E+09	 9.85005179E-01	-1.11393254E+02
3.10500000E+09	 9.83272853E-01	-1.11341283E+02
3.11000000E+09	 9.81509564E-01	-1.11263693E+02
3.11500000E+09	 9.79239281E-01	-1.11194213E+02
3.12000000E+09	 9.77201855E-01	-1.11174742E+02
3.12500000E+09	 9.75065131E-01	-1.11166902E+02
3.13000000E+09	 9.73591905E-01	-1.11159636E+02
3.13500000E+09	 9.71697108E-01	-1.11146225E+02
3.14000000E+09	 9.70054230E-01	-1.11180450E+02
3.14500000E+09	 9.68423444E-01	-1.11181502E+02
3.15000000E+09	 9.67027156E-01	-1.11231328E+02
3.15500000E+09	 9.66442900E-01	-1.11243181E+02
3.16000000E+09	 9.65267938E-01	-1.11249890E+02
3.16500000E+09	 9.65168934E-01	-1.11308364E+02
3.17000000E+09	 9.64260185E-01	-1.11303122E+02
3.17500000E+09	 9.63950216E-01	-1.11337691E+02
3.18000000E+09	 9.63598256E-01	-1.11378238E+02
3.18500000E+09	 9.63700547E-01	-1.11324771E+02
3.19000000E+09	 9.63850344E-01	-1.11281178E+02
3.19500000E+09	 9.63934607E-01	-1.11228429E+02
3.20000000E+09	 9.63436578E-01	-1.11153279E+02
3.20500000E+09	 9.63144339E-01	-1.11048002E+02
3.21000000E+09	 9.62505467E-01	-1.10920739E+02
3.21500000E+09	 9.61945832E-01	-1.10812301E+02
3.22000000E+09	 9.59769227E-01	-1.10681148E+02
3.22500000E+09	 9.57473065E-01	-1.10588276E+02
3.23000000E+09	 9.54679135E-01	-1.10521685E+02
3.23500000E+09	 9.52112844E-01	-1.10487674E+02
3.24000000E+09	 9.49795937E-01	-1.10464782E+02
3.24500000E+09	 9.47300636E-01	-1.10476219E+02
3.25000000E+09	 9.45076136E-01	-1.10436459E+02
3.25500000E+09	 9.43140363E-01	-1.10443204E+02
3.26000000E+09	 9.40932375E-01	-1.10458786E+02
3.26500000E+09	 9.38971247E-01	-1.10462827E+02
3.27000000E+09	 9.36859975E-01	-1.10456370E+02
3.27500000E+09	 9.35005406E-01	-1.10473092E+02
3.28000000E+09	 9.33263830E-01	-1.10486177E+02
3.28500000E+09	 9.31293721E-01	-1.10498829E+02
3.29000000E+09	 9.29325110E-01	-1.10533468E+02
3.29500000E+09	 9.28015108E-01	-1.10550950E+02
3.30000000E+09	 9.26188268E-01	-1.10586223E+02
3.30500000E+09	 9.24702854E-01	-1.10613640E+02
3.31000000E+09	 9.23097794E-01	-1.10630295E+02
3.31500000E+09	 9.21930264E-01	-1.10651233E+02
3.32000000E+09	 9.20446069E-01	-1.10665725E+02
3.32500000E+09	 9.18826151E-01	-1.10699589E+02
3.33000000E+09	 9.17584655E-01	-1.10703325E+02
3.33500000E+09	 9.16225152E-01	-1.10702753E+02
3.34000000E+09	 9.15381133E-01	-1.10708428E+02
3.34500000E+09	 9.14036561E-01	-1.10686282E+02
3.35000000E+09	 9.12669942E-01	-1.10687611E+02
3.35500000E+09	 9.11217012E-01	-1.10655661E+02
3.36000000E+09	 9.09871296E-01	-1.10632361E+02
3.36500000E+09	 9.08142959E-01	-1.10620456E+02
3.37000000E+09	 9.06831513E-01	-1.10562925E+02
3.37500000E+09	 9.05087318E-01	-1.10521377E+02
3.38000000E+09	 9.02922300E-01	-1.10498651E+02
3.38500000E+09	 9.00644382E-01	-1.10458924E+02
3.39000000E+09	 8.98837340E-01	-1.10444356E+02
3.39500000E+09	 8.96582695E-01	-1.10404593E+02
3.40000000E+09	 8.94229387E-01	-1.10389575E+02
3.40500000E+09	 8.91900291E-01	-1.10328578E+02
3.41000000E+09	 8.89113298E-01	-1.10317290E+02
3.41500000E+09	 8.86361365E-01	-1.10309087E+02
3.42000000E+09	 8.83594755E-01	-1.10310104E+02
3.42500000E+09	 8.80827361E-01	-1.10345602E+02
3.43000000E+09	 8.77969955E-01	-1.10323819E+02
3.43500000E+09	 8.75105583E-01	-1.10372486E+02
3.44000000E+09	 8.72712572E-01	-1.10385510E+02
3.44500000E+09	 8.68976124E-01	-1.10431438E+02
3.45000000E+09	 8.66409327E-01	-1.10470174E+02
3.45500000E+09	 8.63768618E-01	-1.10513190E+02
3.46000000E+09	 8.61179262E-01	-1.10591996E+02
3.46500000E+09	 8.58325911E-01	-1.10661556E+02
3.47000000E+09	 8.55971315E-01	-1.10748619E+02
3.47500000E+09	 8.53798114E-01	-1.10838964E+02
3.48000000E+09	 8.51470111E-01	-1.10921332E+02
3.48500000E+09	 8.49230283E-01	-1.11068917E+02
3.49000000E+09	 8.47855126E-01	-1.11149081E+02
3.49500000E+09	 8.46252052E-01	-1.11230130E+02
3.50000000E+09	 8.44741190E-01	-1.11312870E+02
3.50500000E+09	 8.43290947E-01	-1.11363800E+02
3.51000000E+09	 8.42234938E-01	-1.11417026E+02
3.51500000E+09	 8.40836555E-01	-1.11456605E+02
3.52000000E+09	 8.39735549E-01	-1.11486046E+02
3.52500000E+09	 8.38342971E-01	-1.11476217E+02
3.53000000E+09	 8.37351426E-01	-1.11459241E+02
3.53500000E+09	 8.35668457E-01	-1.11404086E+02
3.54000000E+09	 8.33387432E-01	-1.11344184E+02
3.54500000E+09	 8.30921366E-01	-1.11304648E+02
3.55000000E+09	 8.27416814E-01	-1.11238036E+02
3.55500000E+09	 8.23564592E-01	-1.11183679E+02
3.56000000E+09	 8.18938522E-01	-1.11188317E+02
3.56500000E+09	 8.14408858E-01	-1.11203797E+02
3.57000000E+09	 8.08693517E-01	-1.11278106E+02
3.57500000E+09	 8.02449349E-01	-1.11418275E+02
3.58000000E+09	 7.97376643E-01	-1.11638064E+02
3.58500000E+09	 7.93283061E-01	-1.11967118E+02
3.59000000E+09	 7.89835514E-01	-1.12321121E+02
3.59500000E+09	 7.88114260E-01	-1.12718075E+02
3.60000000E+09	 7.87412703E-01	-1.13074449E+02
3.60500000E+09	 7.87386470E-01	-1.13374065E+02
3.61000000E+09	 7.88449815E-01	-1.13636332E+02
3.61500000E+09	 7.89652942E-01	-1.13748348E+02
3.62000000E+09	 7.90344071E-01	-1.13844023E+02
3.62500000E+09	 7.90878752E-01	-1.13953606E+02
3.63000000E+09	 7.91021240E-01	-1.13898616E+02
3.63500000E+09	 7.90375913E-01	-1.13885466E+02
3.64000000E+09	 7.88686224E-01	-1.13871992E+02
3.64500000E+09	 7.86976478E-01	-1.13845534E+02
3.65000000E+09	 7.84859173E-01	-1.13876153E+02
3.65500000E+09	 7.81897741E-01	-1.13925298E+02
3.66000000E+09	 7.79368923E-01	-1.13977496E+02
3.66500000E+09	 7.76967881E-01	-1.14063288E+02
3.67000000E+09	 7.74097812E-01	-1.14072430E+02
3.67500000E+09	 7.72053348E-01	-1.14203638E+02
3.68000000E+09	 7.69144685E-01	-1.14257411E+02
3.68500000E+09	 7.66011415E-01	-1.14317754E+02
3.69000000E+09	 7.63531520E-01	-1.14422168E+02
3.69500000E+09	 7.60011899E-01	-1.14567547E+02
3.70000000E+09	 7.56785278E-01	-1.14672267E+02
3.70500000E+09	 7.53268628E-01	-1.14804891E+02
3.71000000E+09	 7.49343553E-01	-1.14985245E+02
3.71500000E+09	 7.46015593E-01	-1.15177687E+02
3.72000000E+09	 7.42465371E-01	-1.15424019E+02
3.72500000E+09	 7.38872374E-01	-1.15727234E+02
3.73000000E+09	 7.34624799E-01	-1.16107874E+02
3.73500000E+09	 7.32241448E-01	-1.16510974E+02
3.74000000E+09	 7.31112688E-01	-1.16954896E+02
3.74500000E+09	 7.30420461E-01	-1.17383135E+02
3.75000000E+09	 7.31647179E-01	-1.17774007E+02
3.75500000E+09	 7.33484172E-01	-1.18111849E+02
3.76000000E+09	 7.35903376E-01	-1.18310333E+02
3.76500000E+09	 7.38490406E-01	-1.18422414E+02
3.77000000E+09	 7.40500105E-01	-1.18391198E+02
3.77500000E+09	 7.40548648E-01	-1.18256788E+02
3.78000000E+09	 7.40574620E-01	-1.18063104E+02
3.78500000E+09	 7.36945828E-01	-1.17957161E+02
3.79000000E+09	 7.32504990E-01	-1.17970037E+02
3.79500000E+09	 7.27964329E-01	-1.18121975E+02
3.80000000E+09	 7.24064337E-01	-1.18317426E+02
3.80500000E+09	 7.20408821E-01	-1.18597843E+02
3.81000000E+09	 7.17490499E-01	-1.18893856E+02
3.81500000E+09	 7.15153649E-01	-1.19197617E+02
3.82000000E+09	 7.13139220E-01	-1.19498654E+02
3.82500000E+09	 7.11428351E-01	-1.19831248E+02
3.83000000E+09	 7.10235010E-01	-1.20134836E+02
3.83500000E+09	 7.12892567E-01	-1.20524013E+02
3.84000000E+09	 7.12026894E-01	-1.20724552E+02
3.84500000E+09	 7.11170380E-01	-1.20948555E+02
3.85000000E+09	 7.10212403E-01	-1.21139575E+02
3.85500000E+09	 7.09163066E-01	-1.21339482E+02
3.86000000E+09	 7.08303785E-01	-1.21542422E+02
3.86500000E+09	 7.07195899E-01	-1.21751451E+02
3.87000000E+09	 7.06338064E-01	-1.21964920E+02
3.87500000E+09	 7.05470130E-01	-1.22169223E+02
3.88000000E+09	 7.04598634E-01	-1.22379458E+02
3.88500000E+09	 7.03623478E-01	-1.22607720E+02
3.89000000E+09	 7.02616794E-01	-1.22823316E+02
3.89500000E+09	 7.01940075E-01	-1.23050330E+02
3.90000000E+09	 7.01051038E-01	-1.23286644E+02
3.90500000E+09	 7.00377241E-01	-1.23500844E+02
3.91000000E+09	 6.99586236E-01	-1.23744977E+02
3.91500000E+09	 6.98814348E-01	-1.23962792E+02
3.92000000E+09	 6.98116295E-01	-1.24197126E+02
3.92500000E+09	 6.97607625E-01	-1.24426008E+02
3.93000000E+09	 6.97022853E-01	-1.24651190E+02
3.93500000E+09	 6.96457892E-01	-1.24879866E+02
3.94000000E+09	 6.95838705E-01	-1.25121882E+02
3.94500000E+09	 6.95304281E-01	-1.25345643E+02
3.95000000E+09	 6.95133983E-01	-1.25594633E+02
3.95500000E+09	 6.94680271E-01	-1.25819612E+02
3.96000000E+09	 6.94123174E-01	-1.26047959E+02
3.96500000E+09	 6.93953687E-01	-1.26294331E+02
3.97000000E+09	 6.93598256E-01	-1.26512218E+02
3.97500000E+09	 6.93574132E-01	-1.26740407E+02
3.98000000E+09	 6.93275429E-01	-1.26965875E+02
3.98500000E+09	 6.93089287E-01	-1.27204438E+02
3.99000000E+09	 6.92982280E-01	-1.27425209E+02
3.99500000E+09	 6.92784779E-01	-1.27653354E+02
4.00000000E+09	 6.92805197E-01	-1.27886445E+02
4.00500000E+09	 6.92645346E-01	-1.28103646E+02
4.01000000E+09	 6.92537368E-01	-1.28321730E+02
4.01500000E+09	 6.92713778E-01	-1.28567277E+02
4.02000000E+09	 6.92754714E-01	-1.28782714E+02
4.02500000E+09	 6.92585421E-01	-1.29003205E+02
4.03000000E+09	 6.92734507E-01	-1.29225941E+02
4.03500000E+09	 6.92972882E-01	-1.29451831E+02
4.04000000E+09	 6.92983532E-01	-1.29669636E+02
4.04500000E+09	 6.93241875E-01	-1.29900462E+02
4.05000000E+09	 6.93406985E-01	-1.30109829E+02
4.05500000E+09	 6.93738583E-01	-1.30342605E+02
4.06000000E+09	 6.93855244E-01	-1.30555467E+02
4.06500000E+09	 6.94238698E-01	-1.30771716E+02
4.07000000E+09	 6.94592475E-01	-1.30993753E+02
4.07500000E+09	 6.94872796E-01	-1.31215160E+02
4.08000000E+09	 6.95385726E-01	-1.31429237E+02
4.08500000E+09	 6.95885379E-01	-1.31646452E+02
4.09000000E+09	 6.96212985E-01	-1.31858378E+02
4.09500000E+09	 6.96843177E-01	-1.32069678E+02
4.10000000E+09	 6.97217558E-01	-1.32285738E+02
4.10500000E+09	 6.97899271E-01	-1.32488460E+02
4.11000000E+09	 6.98565713E-01	-1.32716375E+02
4.11500000E+09	 6.99078014E-01	-1.32895662E+02
4.12000000E+09	 6.99584422E-01	-1.33117206E+02
4.12500000E+09	 7.00238727E-01	-1.33316505E+02
4.13000000E+09	 7.01064146E-01	-1.33512610E+02
4.13500000E+09	 7.01741085E-01	-1.33725840E+02
4.14000000E+09	 7.02514628E-01	-1.33907162E+02
4.14500000E+09	 7.03222340E-01	-1.34116191E+02
4.15000000E+09	 7.04106600E-01	-1.34310890E+02
4.15500000E+09	 7.04871755E-01	-1.34515732E+02
4.16000000E+09	 7.05642404E-01	-1.34699486E+02
4.16500000E+09	 7.06636418E-01	-1.34882305E+02
4.17000000E+09	 7.07436385E-01	-1.35078279E+02
4.17500000E+09	 7.08474779E-01	-1.35250198E+02
4.18000000E+09	 7.09430508E-01	-1.35467958E+02
4.18500000E+09	 7.10119524E-01	-1.35649837E+02
4.19000000E+09	 7.11113340E-01	-1.35819050E+02
4.19500000E+09	 7.12310039E-01	-1.36010819E+02
4.20000000E+09	 7.13285745E-01	-1.36172487E+02
4.20500000E+09	 7.14149153E-01	-1.36364766E+02
4.21000000E+09	 7.15264517E-01	-1.36531935E+02
4.21500000E+09	 7.16412090E-01	-1.36720955E+02
4.22000000E+09	 7.17485007E-01	-1.36889075E+02
4.22500000E+09	 7.18582627E-01	-1.37062836E+02
4.23000000E+09	 7.19714236E-01	-1.37235471E+02
4.23500000E+09	 7.20765363E-01	-1.37409567E+02
4.24000000E+09	 7.21741542E-01	-1.37567584E+02
4.24500000E+09	 7.22829146E-01	-1.37738418E+02
4.25000000E+09	 7.24164576E-01	-1.37888670E+02
4.25500000E+09	 7.25392881E-01	-1.38059714E+02
4.26000000E+09	 7.26709768E-01	-1.38206583E+02
4.26500000E+09	 7.27866308E-01	-1.38353238E+02
4.27000000E+09	 7.29003218E-01	-1.38512472E+02
4.27500000E+09	 7.29970636E-01	-1.38669936E+02
4.28000000E+09	 7.31260595E-01	-1.38820914E+02
4.28500000E+09	 7.32391532E-01	-1.38966241E+02
4.29000000E+09	 7.33852267E-01	-1.39126769E+02
4.29500000E+09	 7.34922686E-01	-1.39289805E+02
4.30000000E+09	 7.36176431E-01	-1.39435242E+02
4.30500000E+09	 7.37260925E-01	-1.39588327E+02
4.31000000E+09	 7.38788852E-01	-1.39726687E+02
4.31500000E+09	 7.40075871E-01	-1.39895112E+02
4.32000000E+09	 7.41578308E-01	-1.40039928E+02
4.32500000E+09	 7.42992881E-01	-1.40194204E+02
4.33000000E+09	 7.44653462E-01	-1.40342898E+02
4.33500000E+09	 7.46240095E-01	-1.40482170E+02
4.34000000E+09	 7.47758051E-01	-1.40606411E+02
4.34500000E+09	 7.49382060E-01	-1.40734622E+02
4.35000000E+09	 7.51114481E-01	-1.40864378E+02
4.35500000E+09	 7.52877779E-01	-1.40990074E+02
4.36000000E+09	 7.54517304E-01	-1.41110013E+02
4.36500000E+09	 7.56227101E-01	-1.41212526E+02
4.37000000E+09	 7.57858015E-01	-1.41326494E+02
4.37500000E+09	 7.59751670E-01	-1.41425424E+02
4.38000000E+09	 7.61234782E-01	-1.41508166E+02
4.38500000E+09	 7.62695937E-01	-1.41628250E+02
4.39000000E+09	 7.64346973E-01	-1.41706575E+02
4.39500000E+09	 7.65912063E-01	-1.41791351E+02
4.40000000E+09	 7.67251059E-01	-1.41891990E+02
4.40500000E+09	 7.68612122E-01	-1.41969586E+02
4.41000000E+09	 7.70096546E-01	-1.42052127E+02
4.41500000E+09	 7.71619937E-01	-1.42145582E+02
4.42000000E+09	 7.72997460E-01	-1.42254693E+02
4.42500000E+09	 7.74476027E-01	-1.42357638E+02
4.43000000E+09	 7.75967987E-01	-1.42440474E+02
4.43500000E+09	 7.77408523E-01	-1.42549436E+02
4.44000000E+09	 7.79168478E-01	-1.42654277E+02
4.44500000E+09	 7.80728221E-01	-1.42749266E+02
4.45000000E+09	 7.82836411E-01	-1.42851466E+02
4.45500000E+09	 7.84566517E-01	-1.42922086E+02
4.46000000E+09	 7.86628191E-01	-1.43015925E+02
4.46500000E+09	 7.88758715E-01	-1.43123081E+02
4.47000000E+09	 7.90567920E-01	-1.43166816E+02
4.47500000E+09	 7.92646952E-01	-1.43243688E+02
4.48000000E+09	 7.94969972E-01	-1.43292235E+02
4.48500000E+09	 7.96900321E-01	-1.43332067E+02
4.49000000E+09	 7.98825858E-01	-1.43375461E+02
4.49500000E+09	 8.00535041E-01	-1.43398049E+02
4.50000000E+09	 8.02122132E-01	-1.43436843E+02
4.50500000E+09	 8.03972418E-01	-1.43456433E+02
4.51000000E+09	 8.05426328E-01	-1.43477383E+02
4.51500000E+09	 8.06896321E-01	-1.43504618E+02
4.52000000E+09	 8.08068018E-01	-1.43524074E+02
4.52500000E+09	 8.09714474E-01	-1.43577378E+02
4.53000000E+09	 8.10641925E-01	-1.43622893E+02
4.53500000E+09	 8.12414259E-01	-1.43669519E+02
4.54000000E+09	 8.13819496E-01	-1.43710846E+02
4.54500000E+09	 8.15236155E-01	-1.43755380E+02
4.55000000E+09	 8.16993408E-01	-1.43794361E+02
4.55500000E+09	 8.18565858E-01	-1.43831700E+02
4.56000000E+09	 8.20310372E-01	-1.43868970E+02
4.56500000E+09	 8.21769022E-01	-1.43900370E+02
4.57000000E+09	 8.23389796E-01	-1.43952112E+02
4.57500000E+09	 8.25012830E-01	-1.43990977E+02
4.58000000E+09	 8.26625685E-01	-1.44021373E+02
4.58500000E+09	 8.28206426E-01	-1.44056515E+02
4.59000000E+09	 8.29948653E-01	-1.44071376E+02
4.59500000E+09	 8.31794798E-01	-1.44112609E+02
4.60000000E+09	 8.33385059E-01	-1.44138913E+02
4.60500000E+09	 8.35293076E-01	-1.44164663E+02
4.61000000E+09	 8.36928653E-01	-1.44202740E+02
4.61500000E+09	 8.38784893E-01	-1.44198961E+02
4.62000000E+09	 8.40751821E-01	-1.44204916E+02
4.62500000E+09	 8.42498687E-01	-1.44226441E+02
4.63000000E+09	 8.44293652E-01	-1.44226626E+02
4.63500000E+09	 8.45944901E-01	-1.44228058E+02
4.64000000E+09	 8.47636141E-01	-1.44226986E+02
4.64500000E+09	 8.49532058E-01	-1.44206933E+02
4.65000000E+09	 8.51086953E-01	-1.44209810E+02
4.65500000E+09	 8.52963461E-01	-1.44192018E+02
4.66000000E+09	 8.54583225E-01	-1.44171260E+02
4.66500000E+09	 8.56663598E-01	-1.44164613E+02
4.67000000E+09	 8.58173471E-01	-1.44139662E+02
4.67500000E+09	 8.59706924E-01	-1.44123236E+02
4.68000000E+09	 8.61340515E-01	-1.44093629E+02
4.68500000E+09	 8.62910787E-01	-1.44069973E+02
4.69000000E+09	 8.64309644E-01	-1.44047760E+02
4.69500000E+09	 8.65700339E-01	-1.44038905E+02
4.70000000E+09	 8.67336582E-01	-1.44021281E+02
4.70500000E+09	 8.68814890E-01	-1.44003592E+02
4.71000000E+09	 8.69926344E-01	-1.43986901E+02
4.71500000E+09	 8.71065269E-01	-1.43956853E+02
4.72000000E+09	 8.72500668E-01	-1.43957604E+02
4.72500000E+09	 8.73939619E-01	-1.43953584E+02
4.73000000E+09	 8.75641401E-01	-1.43921681E+02
4.73500000E+09	 8.76734241E-01	-1.43923829E+02
4.74000000E+09	 8.78340844E-01	-1.43926689E+02
4.74500000E+09	 8.80036335E-01	-1.43877432E+02
4.75000000E+09	 8.81853916E-01	-1.43921829E+02
4.75500000E+09	 8.83204255E-01	-1.43891213E+02
4.76000000E+09	 8.85011270E-01	-1.43854758E+02
4.76500000E+09	 8.86936314E-01	-1.43816924E+02
4.77000000E+09	 8.88460898E-01	-1.43819422E+02
4.77500000E+09	 8.90316158E-01	-1.43764632E+02
4.78000000E+09	 8.92064199E-01	-1.43667498E+02
4.78500000E+09	 8.93808152E-01	-1.43617220E+02
4.79000000E+09	 8.95024448E-01	-1.43578435E+02
4.79500000E+09	 8.96346650E-01	-1.43498027E+02
4.80000000E+09	 8.97515096E-01	-1.43422746E+02
4.80500000E+09	 8.98477855E-01	-1.43360952E+02
4.81000000E+09	 8.98990166E-01	-1.43325185E+02
4.81500000E+09	 9.00394029E-01	-1.43243766E+02
4.82000000E+09	 9.01302624E-01	-1.43187628E+02
4.82500000E+09	 9.02206032E-01	-1.43204064E+02
4.83000000E+09	 9.03104674E-01	-1.43110997E+02
4.83500000E+09	 9.03527445E-01	-1.43098407E+02
4.84000000E+09	 9.04458571E-01	-1.43064817E+02
4.84500000E+09	 9.05549207E-01	-1.43019539E+02
4.85000000E+09	 9.06796180E-01	-1.43013028E+02
4.85500000E+09	 9.07323097E-01	-1.42954988E+02
4.86000000E+09	 9.08663508E-01	-1.42934439E+02
4.86500000E+09	 9.09800844E-01	-1.42860151E+02
4.87000000E+09	 9.11263490E-01	-1.42843490E+02
4.87500000E+09	 9.12419471E-01	-1.42790729E+02
4.88000000E+09	 9.13494689E-01	-1.42752498E+02
4.88500000E+09	 9.14676844E-01	-1.42677248E+02
4.89000000E+09	 9.16230712E-01	-1.42638515E+02
4.89500000E+09	 9.17449985E-01	-1.42564964E+02
4.90000000E+09	 9.18114602E-01	-1.42500330E+02
4.90500000E+09	 9.18893904E-01	-1.42459278E+02
4.91000000E+09	 9.19938171E-01	-1.42395246E+02
4.91500000E+09	 9.20917433E-01	-1.42322466E+02
4.92000000E+09	 9.21956185E-01	-1.42265176E+02
4.92500000E+09	 9.22927132E-01	-1.42200963E+02
4.93000000E+09	 9.23879960E-01	-1.42126576E+02
4.93500000E+09	 9.24911718E-01	-1.42060557E+02
4.94000000E+09	 9.25715695E-01	-1.41980947E+02
4.94500000E+09	 9.26674334E-01	-1.41908596E+02
4.95000000E+09	 9.27685002E-01	-1.41835994E+02
4.95500000E+09	 9.28552630E-01	-1.41769613E+02
4.96000000E+09	 9.29364159E-01	-1.41677434E+02
4.96500000E+09	 9.30380796E-01	-1.41596627E+02
4.97000000E+09	 9.31168488E-01	-1.41521550E+02
4.97500000E+09	 9.31953877E-01	-1.41429162E+02
4.98000000E+09	 9.32947762E-01	-1.41342605E+02
4.98500000E+09	 9.33809897E-01	-1.41247496E+02
4.99000000E+09	 9.34737728E-01	-1.41155647E+02
4.99500000E+09	 9.35579767E-01	-1.41049403E+02
5.00000000E+09	 9.36215671E-01	-1.40952960E+02
5.00500000E+09	 9.37110356E-01	-1.40837290E+02
5.01000000E+09	 9.37886363E-01	-1.40746661E+02
5.01500000E+09	 9.38439486E-01	-1.40624644E+02
5.02000000E+09	 9.39022337E-01	-1.40528002E+02
5.02500000E+09	 9.39881664E-01	-1.40391948E+02
5.03000000E+09	 9.40373696E-01	-1.40314474E+02
5.03500000E+09	 9.41110923E-01	-1.40201314E+02
5.04000000E+09	 9.41546795E-01	-1.40089283E+02
5.04500000E+09	 9.41805890E-01	-1.39996499E+02
5.05000000E+09	 9.41855026E-01	-1.39891195E+02
5.05500000E+09	 9.42283069E-01	-1.39786165E+02
5.06000000E+09	 9.41808593E-01	-1.39681058E+02
5.06500000E+09	 9.41900060E-01	-1.39601713E+02
5.07000000E+09	 9.41639342E-01	-1.39494142E+02
5.07500000E+09	 9.41621125E-01	-1.39427733E+02
5.08000000E+09	 9.41490037E-01	-1.39331523E+02
5.08500000E+09	 9.41758781E-01	-1.39250965E+02
5.09000000E+09	 9.41611774E-01	-1.39185079E+02
5.09500000E+09	 9.41316855E-01	-1.39084550E+02
5.10000000E+09	 9.41633290E-01	-1.39015569E+02
5.10500000E+09	 9.41807361E-01	-1.38922616E+02
5.11000000E+09	 9.41923337E-01	-1.38842270E+02
5.11500000E+09	 9.41761656E-01	-1.38743359E+02
5.12000000E+09	 9.41708213E-01	-1.38632861E+02
5.12500000E+09	 9.41847897E-01	-1.38520964E+02
5.13000000E+09	 9.41499663E-01	-1.38417590E+02
5.13500000E+09	 9.41122608E-01	-1.38346252E+02
5.14000000E+09	 9.40305067E-01	-1.38208202E+02
5.14500000E+09	 9.40088070E-01	-1.38117493E+02
5.15000000E+09	 9.39408581E-01	-1.38003567E+02
5.15500000E+09	 9.38860676E-01	-1.37879427E+02
5.16000000E+09	 9.38074852E-01	-1.37778581E+02
5.16500000E+09	 9.37549572E-01	-1.37676346E+02
5.17000000E+09	 9.36882953E-01	-1.37577986E+02
5.17500000E+09	 9.36110217E-01	-1.37467767E+02
5.18000000E+09	 9.35138943E-01	-1.37382028E+02
5.18500000E+09	 9.34547690E-01	-1.37300334E+02
5.19000000E+09	 9.33616019E-01	-1.37182636E+02
5.19500000E+09	 9.32531669E-01	-1.37100075E+02
5.20000000E+09	 9.31663346E-01	-1.37001057E+02
5.20500000E+09	 9.30970451E-01	-1.36896913E+02
5.21000000E+09	 9.29903931E-01	-1.36812778E+02
5.21500000E+09	 9.28935462E-01	-1.36742186E+02
5.22000000E+09	 9.28038699E-01	-1.36644885E+02
5.22500000E+09	 9.26737610E-01	-1.36556836E+02
5.23000000E+09	 9.26066157E-01	-1.36478530E+02
5.23500000E+09	 9.25070464E-01	-1.36403124E+02
5.24000000E+09	 9.23982518E-01	-1.36316839E+02
5.24500000E+09	 9.23160712E-01	-1.36221304E+02
5.25000000E+09	 9.22296411E-01	-1.36149368E+02
5.25500000E+09	 9.20961547E-01	-1.36053219E+02
5.26000000E+09	 9.20228478E-01	-1.35950112E+02
5.26500000E+09	 9.19085014E-01	-1.35859601E+02
5.27000000E+09	 9.18113175E-01	-1.35778428E+02
5.27500000E+09	 9.16752753E-01	-1.35681546E+02
5.28000000E+09	 9.15775955E-01	-1.35598674E+02
5.28500000E+09	 9.14566600E-01	-1.35482957E+02
5.29000000E+09	 9.13069059E-01	-1.35395717E+02
5.29500000E+09	 9.11796680E-01	-1.35315942E+02
5.30000000E+09	 9.10531597E-01	-1.35189392E+02
5.30500000E+09	 9.09290360E-01	-1.35099216E+02
5.31000000E+09	 9.07487555E-01	-1.34990990E+02
5.31500000E+09	 9.05817043E-01	-1.34901202E+02
5.32000000E+09	 9.03797210E-01	-1.34810510E+02
5.32500000E+09	 9.02381448E-01	-1.34710889E+02
5.33000000E+09	 8.99982327E-01	-1.34624053E+02
5.33500000E+09	 8.98337831E-01	-1.34583200E+02
5.34000000E+09	 8.96152722E-01	-1.34459366E+02
5.34500000E+09	 8.94041416E-01	-1.34406046E+02
5.35000000E+09	 8.91944711E-01	-1.34288715E+02
5.35500000E+09	 8.89713449E-01	-1.34246712E+02
5.36000000E+09	 8.87549001E-01	-1.34169948E+02
5.36500000E+09	 8.85649370E-01	-1.34113194E+02
5.37000000E+09	 8.83201455E-01	-1.34047108E+02
5.37500000E+09	 8.81150301E-01	-1.34012189E+02
5.38000000E+09	 8.78925421E-01	-1.33987913E+02
5.38500000E+09	 8.76310322E-01	-1.33903693E+02
5.39000000E+09	 8.74774133E-01	-1.33891172E+02
5.39500000E+09	 8.72408714E-01	-1.33841886E+02
5.40000000E+09	 8.70130032E-01	-1.33765274E+02
5.40500000E+09	 8.67434186E-01	-1.33745464E+02
5.41000000E+09	 8.65528147E-01	-1.33692875E+02
5.41500000E+09	 8.63266903E-01	-1.33647288E+02
5.42000000E+09	 8.60947850E-01	-1.33620377E+02
5.42500000E+09	 8.58770606E-01	-1.33585220E+02
5.43000000E+09	 8.56260965E-01	-1.33563999E+02
5.43500000E+09	 8.53592422E-01	-1.33516195E+02
5.44000000E+09	 8.50804759E-01	-1.33500262E+02
5.44500000E+09	 8.48882586E-01	-1.33455554E+02
5.45000000E+09	 8.45750529E-01	-1.33444939E+02
5.45500000E+09	 8.43345596E-01	-1.33438171E+02
5.46000000E+09	 8.40525213E-01	-1.33453810E+02
5.46500000E+09	 8.37942468E-01	-1.33460915E+02
5.47000000E+09	 8.35186169E-01	-1.33454786E+02
5.47500000E+09	 8.32608315E-01	-1.33475248E+02
5.48000000E+09	 8.30002831E-01	-1.33489665E+02
5.48500000E+09	 8.27445274E-01	-1.33517275E+02
5.49000000E+09	 8.24916278E-01	-1.33556019E+02
5.49500000E+09	 8.22874132E-01	-1.33590339E+02
5.50000000E+09	 8.20564117E-01	-1.33624270E+02
5.50500000E+09	 8.18195752E-01	-1.33642856E+02
5.51000000E+09	 8.15814892E-01	-1.33661820E+02
5.51500000E+09	 8.13369152E-01	-1.33674068E+02
5.52000000E+09	 8.11012212E-01	-1.33692374E+02
5.52500000E+09	 8.08532151E-01	-1.33733611E+02
5.53000000E+09	 8.05814293E-01	-1.33747913E+02
5.53500000E+09	 8.03674174E-01	-1.33786651E+02
5.54000000E+09	 8.00741071E-01	-1.33829853E+02
5.54500000E+09	 7.98093432E-01	-1.33868679E+02
5.55000000E+09	 7.95851784E-01	-1.33926422E+02
5.55500000E+09	 7.93386020E-01	-1.33963961E+02
5.56000000E+09	 7.90920015E-01	-1.34011011E+02
5.56500000E+09	 7.88486084E-01	-1.34066070E+02
5.57000000E+09	 7.86038775E-01	-1.34130369E+02
5.57500000E+09	 7.83774964E-01	-1.34195753E+02
5.58000000E+09	 7.81714972E-01	-1.34247778E+02
5.58500000E+09	 7.79231837E-01	-1.34322385E+02
5.59000000E+09	 7.77375029E-01	-1.34389099E+02
5.59500000E+09	 7.75091775E-01	-1.34446708E+02
5.60000000E+09	 7.72678015E-01	-1.34501846E+02
5.60500000E+09	 7.70657173E-01	-1.34562911E+02
5.61000000E+09	 7.68504367E-01	-1.34622176E+02
5.61500000E+09	 7.66059233E-01	-1.34695180E+02
5.62000000E+09	 7.63707484E-01	-1.34733690E+02
5.62500000E+09	 7.60819775E-01	-1.34775222E+02
5.63000000E+09	 7.58924539E-01	-1.34847169E+02
5.63500000E+09	 7.56231836E-01	-1.34947674E+02
5.64000000E+09	 7.53548508E-01	-1.35017044E+02
5.64500000E+09	 7.51187777E-01	-1.35120113E+02
5.65000000E+09	 7.48796235E-01	-1.35207714E+02
5.65500000E+09	 7.46204140E-01	-1.35313628E+02
5.66000000E+09	 7.44015619E-01	-1.35417849E+02
5.66500000E+09	 7.41674323E-01	-1.35512466E+02
5.67000000E+09	 7.39368537E-01	-1.35624392E+02
5.67500000E+09	 7.37057083E-01	-1.35741580E+02
5.68000000E+09	 7.34381790E-01	-1.35854233E+02
5.68500000E+09	 7.32789814E-01	-1.35987647E+02
5.69000000E+09	 7.30167700E-01	-1.36072188E+02
5.69500000E+09	 7.27881370E-01	-1.36205381E+02
5.70000000E+09	 7.25937140E-01	-1.36333954E+02
5.70500000E+09	 7.23654698E-01	-1.36498533E+02
5.71000000E+09	 7.21380919E-01	-1.36622108E+02
5.71500000E+09	 7.19404745E-01	-1.36753854E+02
5.72000000E+09	 7.17363124E-01	-1.36910500E+02
5.72500000E+09	 7.15193898E-01	-1.37072565E+02
5.73000000E+09	 7.13127073E-01	-1.37198633E+02
5.73500000E+09	 7.11079694E-01	-1.37340277E+02
5.74000000E+09	 7.09050348E-01	-1.37511730E+02
5.74500000E+09	 7.07094440E-01	-1.37690016E+02
5.75000000E+09	 7.04945242E-01	-1.37830072E+02
5.75500000E+09	 7.03085466E-01	-1.38006229E+02
5.76000000E+09	 7.01364079E-01	-1.38171553E+02
5.76500000E+09	 6.99480446E-01	-1.38336364E+02
5.77000000E+09	 6.97722544E-01	-1.38521647E+02
5.77500000E+09	 6.96047231E-01	-1.38707027E+02
5.78000000E+09	 6.94328528E-01	-1.38880070E+02
5.78500000E+09	 6.92498748E-01	-1.39071024E+02
5.79000000E+09	 6.91145019E-01	-1.39246043E+02
5.79500000E+09	 6.89619196E-01	-1.39437784E+02
5.80000000E+09	 6.88111580E-01	-1.39624012E+02
5.80500000E+09	 6.86668544E-01	-1.39822662E+02
5.81000000E+09	 6.85373860E-01	-1.40013287E+02
5.81500000E+09	 6.84059242E-01	-1.40217353E+02
5.82000000E+09	 6.82816737E-01	-1.40388592E+02
5.82500000E+09	 6.81419283E-01	-1.40580196E+02
5.83000000E+09	 6.80485918E-01	-1.40772860E+02
5.83500000E+09	 6.79181730E-01	-1.40957604E+02
5.84000000E+09	 6.78245857E-01	-1.41147566E+02
5.84500000E+09	 6.77146110E-01	-1.41348662E+02
5.85000000E+09	 6.76195294E-01	-1.41526204E+02
5.85500000E+09	 6.74887995E-01	-1.41728159E+02
5.86000000E+09	 6.74192502E-01	-1.41895161E+02
5.86500000E+09	 6.72988146E-01	-1.42102895E+02
5.87000000E+09	 6.71982966E-01	-1.42291879E+02
5.87500000E+09	 6.71213981E-01	-1.42481047E+02
5.88000000E+09	 6.70102246E-01	-1.42685284E+02
5.88500000E+09	 6.69239875E-01	-1.42861905E+02
5.89000000E+09	 6.68025815E-01	-1.43069760E+02
5.89500000E+09	 6.67405890E-01	-1.43264975E+02
5.90000000E+09	 6.66504660E-01	-1.43493763E+02
5.90500000E+09	 6.65653952E-01	-1.43716409E+02
5.91000000E+09	 6.65213709E-01	-1.43887272E+02
5.91500000E+09	 6.64334471E-01	-1.44103273E+02
5.92000000E+09	 6.63738659E-01	-1.44329564E+02
5.92500000E+09	 6.63246931E-01	-1.44553833E+02
5.93000000E+09	 6.62933308E-01	-1.44749715E+02
5.93500000E+09	 6.62136576E-01	-1.44981305E+02
5.94000000E+09	 6.62394785E-01	-1.45156295E+02
5.94500000E+09	 6.61884999E-01	-1.45385270E+02
5.95000000E+09	 6.61430173E-01	-1.45592153E+02
5.95500000E+09	 6.61397179E-01	-1.45789828E+02
5.96000000E+09	 6.61044560E-01	-1.45999315E+02
5.96500000E+09	 6.60715238E-01	-1.46184364E+02
5.97000000E+09	 6.60485552E-01	-1.46364609E+02
5.97500000E+09	 6.60265967E-01	-1.46568032E+02
5.98000000E+09	 6.59968970E-01	-1.46746303E+02
5.98500000E+09	 6.59821631E-01	-1.46981331E+02
5.99000000E+09	 6.59264622E-01	-1.47160772E+02
5.99500000E+09	 6.59109236E-01	-1.47361712E+02
6.00000000E+09	 6.58619017E-01	-1.47595340E+02
